NaMgF3                                  
   1.00000000000000     
     2.9554109289501840    0.0000000000000000    0.0000000000000000
     0.0000000000000000    9.8563214795146550    0.0000000000000000
     0.0000000000000000   -0.0000000000000000    7.2700048314422299
   Na   Mg   F 
     4     4    12
Direct
  0.0000000000000000  0.2550588479712412  0.2500000000000000
  0.5000000000000000  0.2449411520287587  0.7500000000000000
  0.5000000000000000  0.7550588479712417  0.2500000000000000
  0.0000000000000000  0.7449411520287583  0.7500000000000000
  0.0000000000000000 -0.0000000000000000  0.5000000000000000
  0.0000000000000000 -0.0000000000000000 -0.0000000000000000
  0.5000000000000000  0.5000000000000000  0.5000000000000000
  0.5000000000000000  0.5000000000000000 -0.0000000000000000
  0.5000000000000000  0.1291111596909989  0.4399751327703260
  0.0000000000000000  0.3708888403090010  0.5600248672296738
 -0.0000000000000000  0.3708888403090010  0.9399751327703262
  0.5000000000000000  0.1291111596909989  0.0600248672296740
  0.5000000000000000  0.4256295311996921  0.2500000000000000
 -0.0000000000000000  0.0743704688003079  0.7500000000000000
  0.0000000000000000  0.6291111596909988  0.4399751327703260
  0.5000000000000000  0.8708888403090012  0.5600248672296738
  0.5000000000000000  0.8708888403090012  0.9399751327703262
  0.0000000000000000  0.6291111596909988  0.0600248672296740
 -0.0000000000000000  0.9256295311996920  0.2500000000000000
  0.5000000000000000  0.5743704688003080  0.7500000000000000
 
  0.00000000E+00  0.00000000E+00  0.00000000E+00
  0.00000000E+00  0.00000000E+00  0.00000000E+00
  0.00000000E+00  0.00000000E+00  0.00000000E+00
  0.00000000E+00  0.00000000E+00  0.00000000E+00
  0.00000000E+00  0.00000000E+00  0.00000000E+00
  0.00000000E+00  0.00000000E+00  0.00000000E+00
  0.00000000E+00  0.00000000E+00  0.00000000E+00
  0.00000000E+00  0.00000000E+00  0.00000000E+00
  0.00000000E+00  0.00000000E+00  0.00000000E+00
  0.00000000E+00  0.00000000E+00  0.00000000E+00
  0.00000000E+00  0.00000000E+00  0.00000000E+00
  0.00000000E+00  0.00000000E+00  0.00000000E+00
  0.00000000E+00  0.00000000E+00  0.00000000E+00
  0.00000000E+00  0.00000000E+00  0.00000000E+00
  0.00000000E+00  0.00000000E+00  0.00000000E+00
  0.00000000E+00  0.00000000E+00  0.00000000E+00
  0.00000000E+00  0.00000000E+00  0.00000000E+00
  0.00000000E+00  0.00000000E+00  0.00000000E+00
  0.00000000E+00  0.00000000E+00  0.00000000E+00
  0.00000000E+00  0.00000000E+00  0.00000000E+00
