Rb3 Br3 O9
1.0
6.300634 0.000000 0.000000
-3.150317 5.456509 0.000000
0.000000 0.000000 8.571726
Rb Br O
3 3 9
direct
0.333333 0.666667 0.676381 Rb
0.000000 0.000000 0.009714 Rb
0.666667 0.333333 0.343047 Rb
0.333333 0.666667 0.195330 Br
0.000000 0.000000 0.528663 Br
0.666667 0.333333 0.861996 Br
0.616631 0.808316 0.275221 O
0.191684 0.383369 0.275221 O
0.191684 0.808316 0.275221 O
0.283298 0.141649 0.608554 O
0.858351 0.716702 0.608554 O
0.858351 0.141649 0.608554 O
0.949965 0.474982 0.941887 O
0.525018 0.050035 0.941887 O
0.525018 0.474982 0.941887 O
