Cs2 Mg2 Cl6                             
   1.00000000000000     
     7.4566756602469777    0.0000000000000000    0.0000000000000000
    -3.7283378301234888    6.4576703928143662    0.0000000000000000
     0.0000000000000000    0.0000000000000000    6.2625811078805640
   Cs   Mg   Cl
     2     2     6
Direct
  0.6666669999999968  0.3333330000000032  0.2500000000000000
  0.3333330000000032  0.6666669999999968  0.7500000000000000
 -0.0000000000000000  0.0000000000000000  0.5000000000000000
 -0.0000000000000000 -0.0000000000000000 -0.0000000000000000
  0.6943191365313773  0.8471595682657400  0.2500000000000000
  0.1528404317342600  0.3056808634685272  0.2500000000000000
  0.3056808634686227  0.1528404317342600  0.7500000000000000
  0.1528404317343555  0.8471595682657400  0.2500000000000000
  0.8471595682656445  0.1528404317342600  0.7500000000000000
  0.8471595682657400  0.6943191365314728  0.7500000000000000
 
  0.00000000E+00  0.00000000E+00  0.00000000E+00
  0.00000000E+00  0.00000000E+00  0.00000000E+00
  0.00000000E+00  0.00000000E+00  0.00000000E+00
  0.00000000E+00  0.00000000E+00  0.00000000E+00
  0.00000000E+00  0.00000000E+00  0.00000000E+00
  0.00000000E+00  0.00000000E+00  0.00000000E+00
  0.00000000E+00  0.00000000E+00  0.00000000E+00
  0.00000000E+00  0.00000000E+00  0.00000000E+00
  0.00000000E+00  0.00000000E+00  0.00000000E+00
  0.00000000E+00  0.00000000E+00  0.00000000E+00
