Y4 V4 O12                               
   1.00000000000000     
     5.2717393079045403    0.0000000000000000    0.0000000000000000
     0.0000000000000000    5.6309985970971548    0.0000000000000000
     0.0000000000000000    0.0000000000000000    7.6381773320782322
   Y    V    O 
     4     4    12
Direct
  0.4805373993431311  0.5693735822395544  0.2500000000000000
  0.9805373993431311  0.9306264177604456  0.7500000000000000
  0.5194626006568689  0.4306264177604456  0.7500000000000000
  0.0194616006568644  0.0693745822395520  0.2500000000000000
  0.5000000000000000 -0.0000000000000000 -0.0000000000000000
  0.0000000000000000  0.5000000000000000  0.5000000000000000
  0.0000000000000000  0.5000000000000000 -0.0000000000000000
  0.5000000000000000 -0.0000000000000000  0.5000000000000000
  0.8868969440803426  0.4577429759038226  0.2500000000000000
  0.3868969440803424  0.0422570240961774  0.7500000000000000
  0.1131020559196601  0.5422570240961773  0.7500000000000000
  0.6131030559196574  0.9577429759038227  0.2500000000000000
  0.8078451798341849  0.1968903765236425  0.9429352894992691
  0.3078451798341849  0.3031086234763600  0.0570657105007355
  0.1921548201658151  0.8031096234763574  0.0570657105007355
  0.6921548201658151  0.6968903765236426  0.9429352894992691
  0.1921548201658151  0.8031096234763574  0.4429352894992689
  0.6921548201658151  0.6968903765236426  0.5570647105007309
  0.8078451798341849  0.1968903765236425  0.5570647105007309
  0.3078451798341849  0.3031086234763600  0.4429352894992689
 
  0.00000000E+00  0.00000000E+00  0.00000000E+00
  0.00000000E+00  0.00000000E+00  0.00000000E+00
  0.00000000E+00  0.00000000E+00  0.00000000E+00
  0.00000000E+00  0.00000000E+00  0.00000000E+00
  0.00000000E+00  0.00000000E+00  0.00000000E+00
  0.00000000E+00  0.00000000E+00  0.00000000E+00
  0.00000000E+00  0.00000000E+00  0.00000000E+00
  0.00000000E+00  0.00000000E+00  0.00000000E+00
  0.00000000E+00  0.00000000E+00  0.00000000E+00
  0.00000000E+00  0.00000000E+00  0.00000000E+00
  0.00000000E+00  0.00000000E+00  0.00000000E+00
  0.00000000E+00  0.00000000E+00  0.00000000E+00
  0.00000000E+00  0.00000000E+00  0.00000000E+00
  0.00000000E+00  0.00000000E+00  0.00000000E+00
  0.00000000E+00  0.00000000E+00  0.00000000E+00
  0.00000000E+00  0.00000000E+00  0.00000000E+00
  0.00000000E+00  0.00000000E+00  0.00000000E+00
  0.00000000E+00  0.00000000E+00  0.00000000E+00
  0.00000000E+00  0.00000000E+00  0.00000000E+00
  0.00000000E+00  0.00000000E+00  0.00000000E+00
