K4 Ca4 Br12                             
   1.00000000000000     
     4.3100087039333799    0.0000000000000000    0.0000000000000000
     0.0000000000000000   14.4270435770188179    0.0000000000000000
     0.0000000000000000    0.0000000000000000   10.8560297908505436
   K    Ca   Br
     4     4    12
Direct
 -0.0000000000000000  0.2547037131935111  0.2500000000000000
  0.5000000000000000  0.2452962868064889  0.7500000000000000
  0.5000000000000000  0.7547037131935110  0.2500000000000000
 -0.0000000000000000  0.7452962868064890  0.7500000000000000
  0.0000000000000000 -0.0000000000000000  0.0000000000000000
 -0.0000000000000000 -0.0000000000000000  0.5000000000000000
  0.5000000000000000  0.5000000000000000  0.0000000000000000
  0.5000000000000000  0.5000000000000000  0.5000000000000000
  0.0000000000000000  0.3678026456216553  0.9437925730179020
  0.5000000000000000  0.1321973543783446  0.4437925730179023
 -0.0000000000000000  0.3678026456216553  0.5562074269820980
  0.5000000000000000  0.1321973543783446  0.0562074269820978
  0.5000000000000000  0.4282927777054477  0.2500000000000000
  0.0000000000000000  0.0717072222945523  0.7500000000000000
  0.5000000000000000  0.8678026456216554  0.9437925730179020
 -0.0000000000000000  0.6321973543783446  0.4437925730179023
  0.5000000000000000  0.8678026456216554  0.5562074269820980
  0.0000000000000000  0.6321973543783446  0.0562074269820978
  0.0000000000000000  0.9282927777054476  0.2500000000000000
  0.5000000000000000  0.5717072222945524  0.7500000000000000
 
  0.00000000E+00  0.00000000E+00  0.00000000E+00
  0.00000000E+00  0.00000000E+00  0.00000000E+00
  0.00000000E+00  0.00000000E+00  0.00000000E+00
  0.00000000E+00  0.00000000E+00  0.00000000E+00
  0.00000000E+00  0.00000000E+00  0.00000000E+00
  0.00000000E+00  0.00000000E+00  0.00000000E+00
  0.00000000E+00  0.00000000E+00  0.00000000E+00
  0.00000000E+00  0.00000000E+00  0.00000000E+00
  0.00000000E+00  0.00000000E+00  0.00000000E+00
  0.00000000E+00  0.00000000E+00  0.00000000E+00
  0.00000000E+00  0.00000000E+00  0.00000000E+00
  0.00000000E+00  0.00000000E+00  0.00000000E+00
  0.00000000E+00  0.00000000E+00  0.00000000E+00
  0.00000000E+00  0.00000000E+00  0.00000000E+00
  0.00000000E+00  0.00000000E+00  0.00000000E+00
  0.00000000E+00  0.00000000E+00  0.00000000E+00
  0.00000000E+00  0.00000000E+00  0.00000000E+00
  0.00000000E+00  0.00000000E+00  0.00000000E+00
  0.00000000E+00  0.00000000E+00  0.00000000E+00
  0.00000000E+00  0.00000000E+00  0.00000000E+00
