K6 Sb6 O18                              
   1.00000000000000     
     5.4770433973886066    0.0000000071549395   -0.0000000000000000
    -2.7385217048906632    4.7432594068602283    0.0000000000000000
    -0.0000000000000000    0.0000000000000000   18.6070434570078440
   K    Sb   O 
     6     6    18
Direct
  0.3333330000000032  0.6666669999999968  0.0275838724843935
  0.3333330000000032  0.6666669999999968  0.3057501275156072
  0.0000000000000000 -0.0000000000000000  0.3609168724843896
  0.0000000000000000 -0.0000000000000000  0.6390831275156105
  0.6666669999999968  0.3333330000000032  0.6942498724843927
  0.6666669999999968  0.3333330000000032  0.9724161275156066
  0.0000000000000000 -0.0000000000000000  0.1641428921870792
  0.6666669999999968  0.3333330000000032  0.1691901078129169
  0.6666669999999968  0.3333330000000032  0.4974758921870824
  0.3333330000000032  0.6666669999999968  0.5025241078129175
  0.3333330000000032  0.6666669999999968  0.8308098921870832
  0.0000000000000000 -0.0000000000000000  0.8358571078129207
  0.3284354914628270  0.0641729479346287  0.2290421460360063
  0.7357374564718071  0.6715645085371883  0.2290421460360063
  0.9358270520653659  0.2642625435281831  0.2290421460360063
  0.3382315085371769  0.2691600520653675  0.1042908539639969
  0.9309295435281897  0.6617684914628078  0.1042908539639969
  0.7308399479346380  0.0690704564718201  0.1042908539639969
  0.9951024914628238  0.3975059479346318  0.5623751460360024
  0.4024044564718109  0.0048975085371914  0.5623751460360024
  0.6024940520653627  0.5975955435281792  0.5623751460360024
  0.0048975085371762  0.6024940520653681  0.4376248539639976
  0.5975955435281890  0.9951024914628085  0.4376248539639976
  0.3975059479346372  0.4024044564718208  0.4376248539639976
  0.6617684914628231  0.7308399479346326  0.8957091460360030
  0.0690704564718103  0.3382315085371921  0.8957091460360030
  0.2691600520653621  0.9309295435281799  0.8957091460360030
  0.6715645085371730  0.9358270520653713  0.7709578539639937
  0.2642625435281930  0.3284354914628118  0.7709578539639937
  0.0641729479346341  0.7357374564718169  0.7709578539639937
 
  0.00000000E+00  0.00000000E+00  0.00000000E+00
  0.00000000E+00  0.00000000E+00  0.00000000E+00
  0.00000000E+00  0.00000000E+00  0.00000000E+00
  0.00000000E+00  0.00000000E+00  0.00000000E+00
  0.00000000E+00  0.00000000E+00  0.00000000E+00
  0.00000000E+00  0.00000000E+00  0.00000000E+00
  0.00000000E+00  0.00000000E+00  0.00000000E+00
  0.00000000E+00  0.00000000E+00  0.00000000E+00
  0.00000000E+00  0.00000000E+00  0.00000000E+00
  0.00000000E+00  0.00000000E+00  0.00000000E+00
  0.00000000E+00  0.00000000E+00  0.00000000E+00
  0.00000000E+00  0.00000000E+00  0.00000000E+00
  0.00000000E+00  0.00000000E+00  0.00000000E+00
  0.00000000E+00  0.00000000E+00  0.00000000E+00
  0.00000000E+00  0.00000000E+00  0.00000000E+00
  0.00000000E+00  0.00000000E+00  0.00000000E+00
  0.00000000E+00  0.00000000E+00  0.00000000E+00
  0.00000000E+00  0.00000000E+00  0.00000000E+00
  0.00000000E+00  0.00000000E+00  0.00000000E+00
  0.00000000E+00  0.00000000E+00  0.00000000E+00
  0.00000000E+00  0.00000000E+00  0.00000000E+00
  0.00000000E+00  0.00000000E+00  0.00000000E+00
  0.00000000E+00  0.00000000E+00  0.00000000E+00
  0.00000000E+00  0.00000000E+00  0.00000000E+00
  0.00000000E+00  0.00000000E+00  0.00000000E+00
  0.00000000E+00  0.00000000E+00  0.00000000E+00
  0.00000000E+00  0.00000000E+00  0.00000000E+00
  0.00000000E+00  0.00000000E+00  0.00000000E+00
  0.00000000E+00  0.00000000E+00  0.00000000E+00
  0.00000000E+00  0.00000000E+00  0.00000000E+00
