Cs1 Cd1 Cl3                             
   1.00000000000000     
     5.3320051578859307    0.0000000000000000    0.0000000000000000
    -0.0000000000000000    5.3320051578859307    0.0000000000000000
     0.0000000000000000   -0.0000000000000000    5.3320051578859307
   Cs   Cd   Cl
     1     1     3
Direct
 -0.0000000000000000 -0.0000000000000000 -0.0000000000000000
  0.5000000000000000  0.5000000000000000  0.5000000000000000
  0.0000000000000000  0.5000000000000000  0.5000000000000000
  0.5000000000000000  0.5000000000000000  0.0000000000000000
  0.5000000000000000  0.0000000000000000  0.5000000000000000
 
  0.00000000E+00  0.00000000E+00  0.00000000E+00
  0.00000000E+00  0.00000000E+00  0.00000000E+00
  0.00000000E+00  0.00000000E+00  0.00000000E+00
  0.00000000E+00  0.00000000E+00  0.00000000E+00
  0.00000000E+00  0.00000000E+00  0.00000000E+00
