In6 B6 O18                              
   1.00000000000000     
     4.9126936838438677    0.0000000000000000   -0.0000000000000000
    -2.4563468419219339    4.2545178873997713    0.0000000000000000
     0.0000000000000000    0.0000000000000000   15.7955937315880988
   In   B    O 
     6     6    18
Direct
  0.0000000000000000  0.0000000000000000  0.0000000000000000
  0.3333330000000032  0.6666669999999968  0.1666669999999968
  0.6666669999999968  0.3333330000000032  0.3333330000000032
  0.0000000000000000  0.0000000000000000  0.5000000000000000
  0.3333330000000032  0.6666669999999968  0.6666669999999968
  0.6666669999999968  0.3333330000000032  0.8333330000000032
  0.6666669999999968  0.3333330000000032  0.0833330000000032
  0.0000000000000000  0.0000000000000000  0.2500000000000000
  0.3333330000000032  0.6666669999999968  0.4166669999999968
  0.6666669999999968  0.3333330000000032  0.5833330000000032
  0.0000000000000000  0.0000000000000000  0.7500000000000000
  0.3333330000000032  0.6666669999999968  0.9166669999999968
 -0.0000000000001285  0.2822356977781120  0.2500000000000000
  0.7177643022217596  0.7177643022218879  0.2500000000000000
  0.2822356977783689  0.0000000000000000  0.2500000000000000
  0.6666670000001252  0.0510973022218841  0.0833330000000032
  0.9489026977782443  0.6155686977781153  0.0833330000000032
  0.3844313022216279  0.3333330000000032  0.0833330000000032
  0.6666669999998683  0.6155686977781153  0.5833330000000032
  0.3844313022217564  0.0510973022218841  0.5833330000000032
  0.9489026977783729  0.3333330000000032  0.5833330000000032
  0.3333330000001317  0.3844313022218848  0.4166669999999968
  0.6155686977782436  0.9489026977781160  0.4166669999999968
  0.0510973022216272  0.6666669999999968  0.4166669999999968
  0.3333329999998748  0.9489026977781160  0.9166669999999968
  0.0510973022217557  0.3844313022218848  0.9166669999999968
  0.6155686977783722  0.6666669999999968  0.9166669999999968
  0.0000000000001285  0.7177643022218879  0.7500000000000000
  0.2822356977782404  0.2822356977781120  0.7500000000000000
  0.7177643022216310  0.0000000000000000  0.7500000000000000
 
  0.00000000E+00  0.00000000E+00  0.00000000E+00
  0.00000000E+00  0.00000000E+00  0.00000000E+00
  0.00000000E+00  0.00000000E+00  0.00000000E+00
  0.00000000E+00  0.00000000E+00  0.00000000E+00
  0.00000000E+00  0.00000000E+00  0.00000000E+00
  0.00000000E+00  0.00000000E+00  0.00000000E+00
  0.00000000E+00  0.00000000E+00  0.00000000E+00
  0.00000000E+00  0.00000000E+00  0.00000000E+00
  0.00000000E+00  0.00000000E+00  0.00000000E+00
  0.00000000E+00  0.00000000E+00  0.00000000E+00
  0.00000000E+00  0.00000000E+00  0.00000000E+00
  0.00000000E+00  0.00000000E+00  0.00000000E+00
  0.00000000E+00  0.00000000E+00  0.00000000E+00
  0.00000000E+00  0.00000000E+00  0.00000000E+00
  0.00000000E+00  0.00000000E+00  0.00000000E+00
  0.00000000E+00  0.00000000E+00  0.00000000E+00
  0.00000000E+00  0.00000000E+00  0.00000000E+00
  0.00000000E+00  0.00000000E+00  0.00000000E+00
  0.00000000E+00  0.00000000E+00  0.00000000E+00
  0.00000000E+00  0.00000000E+00  0.00000000E+00
  0.00000000E+00  0.00000000E+00  0.00000000E+00
  0.00000000E+00  0.00000000E+00  0.00000000E+00
  0.00000000E+00  0.00000000E+00  0.00000000E+00
  0.00000000E+00  0.00000000E+00  0.00000000E+00
  0.00000000E+00  0.00000000E+00  0.00000000E+00
  0.00000000E+00  0.00000000E+00  0.00000000E+00
  0.00000000E+00  0.00000000E+00  0.00000000E+00
  0.00000000E+00  0.00000000E+00  0.00000000E+00
  0.00000000E+00  0.00000000E+00  0.00000000E+00
  0.00000000E+00  0.00000000E+00  0.00000000E+00
