La6 Al6 O18                             
   1.00000000000000     
     5.4107045908202238   -0.0000000000743009    0.0000000000000000
    -2.7053517955388053    4.6858068922802154   -0.0000000000000000
     0.0000000000000000    0.0000000000000000   13.1864389991373283
   La   Al   O 
     6     6    18
Direct
  0.3333330000000032  0.6666669999999968  0.9166669999999968
  0.3333330000000032  0.6666669999999968  0.4166669999999968
 -0.0000000000000000 -0.0000000000000000  0.2500000000000000
  0.0000000000000000 -0.0000000000000000  0.7500000000000000
  0.6666669999999968  0.3333330000000032  0.5833330000000032
  0.6666669999999968  0.3333330000000032  0.0833330000000032
 -0.0000000000000000 -0.0000000000000000 -0.0000000000000000
  0.3333330000000032  0.6666669999999968  0.1666669999999968
  0.6666669999999968  0.3333330000000032  0.3333330000000032
 -0.0000000000000000 -0.0000000000000000  0.5000000000000000
  0.3333330000000032  0.6666669999999968  0.6666669999999968
  0.6666669999999968  0.3333330000000032  0.8333330000000032
 -0.0000000000000002  0.5392132230136522  0.2500000000000000
  0.4607867769863472  0.4607867769863477  0.2500000000000000
  0.5392132230136530  0.0000000000000002  0.2500000000000000
  0.6666669999999970  0.7941197769863511  0.0833330000000032
  0.1274537769863509  0.3333330000000030  0.0833330000000032
  0.2058802230136496  0.8725462230136485  0.0833330000000032
  0.6666669999999966  0.8725462230136483  0.5833330000000032
  0.1274537769863511  0.7941197769863508  0.5833330000000032
  0.2058802230136498  0.3333330000000034  0.5833330000000032
  0.3333330000000034  0.1274537769863518  0.4166669999999968
  0.7941197769863502  0.6666669999999966  0.4166669999999968
  0.8725462230136489  0.2058802230136491  0.4166669999999968
  0.3333330000000030  0.2058802230136489  0.9166669999999968
  0.7941197769863504  0.1274537769863515  0.9166669999999968
  0.8725462230136491  0.6666669999999970  0.9166669999999968
  0.0000000000000002  0.4607867769863479  0.7500000000000000
  0.4607867769863471 -0.0000000000000002  0.7500000000000000
  0.5392132230136528  0.5392132230136524  0.7500000000000000
 
  0.00000000E+00  0.00000000E+00  0.00000000E+00
  0.00000000E+00  0.00000000E+00  0.00000000E+00
  0.00000000E+00  0.00000000E+00  0.00000000E+00
  0.00000000E+00  0.00000000E+00  0.00000000E+00
  0.00000000E+00  0.00000000E+00  0.00000000E+00
  0.00000000E+00  0.00000000E+00  0.00000000E+00
  0.00000000E+00  0.00000000E+00  0.00000000E+00
  0.00000000E+00  0.00000000E+00  0.00000000E+00
  0.00000000E+00  0.00000000E+00  0.00000000E+00
  0.00000000E+00  0.00000000E+00  0.00000000E+00
  0.00000000E+00  0.00000000E+00  0.00000000E+00
  0.00000000E+00  0.00000000E+00  0.00000000E+00
  0.00000000E+00  0.00000000E+00  0.00000000E+00
  0.00000000E+00  0.00000000E+00  0.00000000E+00
  0.00000000E+00  0.00000000E+00  0.00000000E+00
  0.00000000E+00  0.00000000E+00  0.00000000E+00
  0.00000000E+00  0.00000000E+00  0.00000000E+00
  0.00000000E+00  0.00000000E+00  0.00000000E+00
  0.00000000E+00  0.00000000E+00  0.00000000E+00
  0.00000000E+00  0.00000000E+00  0.00000000E+00
  0.00000000E+00  0.00000000E+00  0.00000000E+00
  0.00000000E+00  0.00000000E+00  0.00000000E+00
  0.00000000E+00  0.00000000E+00  0.00000000E+00
  0.00000000E+00  0.00000000E+00  0.00000000E+00
  0.00000000E+00  0.00000000E+00  0.00000000E+00
  0.00000000E+00  0.00000000E+00  0.00000000E+00
  0.00000000E+00  0.00000000E+00  0.00000000E+00
  0.00000000E+00  0.00000000E+00  0.00000000E+00
  0.00000000E+00  0.00000000E+00  0.00000000E+00
  0.00000000E+00  0.00000000E+00  0.00000000E+00
