Li6 Nb6 O18                             
   1.00000000000000     
     5.1880911652569814   -0.0000000000000000   -0.0000000000000000
    -2.5940455826284907    4.4930187230258491    0.0000000000000000
    -0.0000000000000000    0.0000000000000000   14.0049235437786788
   Li   Nb   O 
     6     6    18
Direct
  0.6666669999999968  0.3333330000000032  0.0512913068961420
  0.0000000000000000  0.0000000000000000  0.2179583068961459
  0.3333330000000032  0.6666669999999968  0.3846253068961428
  0.6666669999999968  0.3333330000000032  0.5512913068961419
  0.0000000000000000  0.0000000000000000  0.7179583068961458
  0.3333330000000032  0.6666669999999968  0.8846253068961426
  0.6666669999999968  0.3333330000000032  0.3327416901494633
  0.3333330000000032  0.6666669999999968  0.1660756901494641
  0.3333330000000032  0.6666669999999968  0.6660756901494641
  0.0000000000000000  0.0000000000000000  0.4994086901494672
  0.0000000000000000  0.0000000000000000  0.9994086901494673
  0.6666669999999968  0.3333330000000032  0.8327416901494634
  0.6190549762060981  0.9911107357428530  0.2696773343181331
  0.0088892642572952  0.6279432404629728  0.2696773343181331
  0.3720567595366039  0.3809450237941768  0.2696773343181331
  0.0387227595367515  0.3244447357428537  0.1030113343181265
  0.6755552642575695  0.7142790237941775  0.1030113343181265
  0.2857209762056743  0.9612772404629735  0.1030113343181265
  0.2857209762060977  0.3244447357428537  0.6030113343181264
  0.6755552642572944  0.9612772404629735  0.6030113343181264
  0.0387227595366033  0.7142790237941775  0.6030113343181264
  0.7053897595367552  0.6577777357428498  0.4363443343181299
  0.3422222642575735  0.0476120237941735  0.4363443343181299
  0.9523879762056782  0.2946102404629696  0.4363443343181299
  0.9523879762061013  0.6577777357428498  0.9363443343181296
  0.3422222642572984  0.2946102404629696  0.9363443343181296
  0.7053897595366074  0.0476120237941735  0.9363443343181296
  0.3720567595367521  0.9911107357428530  0.7696773343181328
  0.0088892642575703  0.3809450237941768  0.7696773343181328
  0.6190549762056750  0.6279432404629728  0.7696773343181328
 
  0.00000000E+00  0.00000000E+00  0.00000000E+00
  0.00000000E+00  0.00000000E+00  0.00000000E+00
  0.00000000E+00  0.00000000E+00  0.00000000E+00
  0.00000000E+00  0.00000000E+00  0.00000000E+00
  0.00000000E+00  0.00000000E+00  0.00000000E+00
  0.00000000E+00  0.00000000E+00  0.00000000E+00
  0.00000000E+00  0.00000000E+00  0.00000000E+00
  0.00000000E+00  0.00000000E+00  0.00000000E+00
  0.00000000E+00  0.00000000E+00  0.00000000E+00
  0.00000000E+00  0.00000000E+00  0.00000000E+00
  0.00000000E+00  0.00000000E+00  0.00000000E+00
  0.00000000E+00  0.00000000E+00  0.00000000E+00
  0.00000000E+00  0.00000000E+00  0.00000000E+00
  0.00000000E+00  0.00000000E+00  0.00000000E+00
  0.00000000E+00  0.00000000E+00  0.00000000E+00
  0.00000000E+00  0.00000000E+00  0.00000000E+00
  0.00000000E+00  0.00000000E+00  0.00000000E+00
  0.00000000E+00  0.00000000E+00  0.00000000E+00
  0.00000000E+00  0.00000000E+00  0.00000000E+00
  0.00000000E+00  0.00000000E+00  0.00000000E+00
  0.00000000E+00  0.00000000E+00  0.00000000E+00
  0.00000000E+00  0.00000000E+00  0.00000000E+00
  0.00000000E+00  0.00000000E+00  0.00000000E+00
  0.00000000E+00  0.00000000E+00  0.00000000E+00
  0.00000000E+00  0.00000000E+00  0.00000000E+00
  0.00000000E+00  0.00000000E+00  0.00000000E+00
  0.00000000E+00  0.00000000E+00  0.00000000E+00
  0.00000000E+00  0.00000000E+00  0.00000000E+00
  0.00000000E+00  0.00000000E+00  0.00000000E+00
  0.00000000E+00  0.00000000E+00  0.00000000E+00
