Cs4 Au4 Cl12                            
   1.00000000000000     
     7.6280364492431865    0.0000000000000000    0.0000000000000000
     0.0000000000000000    7.6280364492431865   -0.0000000000000000
    -0.0000000000000000    0.0000000000000000   11.3044299542016571
   Cs   Au   Cl
     4     4    12
Direct
  0.5000000000000000  0.0000000000000000  0.2500000000000000
  0.0000000000000000  0.5000000000000000  0.2500000000000000
  0.0000000000000000  0.5000000000000000  0.7500000000000000
  0.5000000000000000  0.0000000000000000  0.7500000000000000
  0.5000000000000000  0.5000000000000000  0.0000000000000000
  0.0000000000000000  0.0000000000000000  0.0000000000000000
  0.0000000000000000  0.0000000000000000  0.5000000000000000
  0.5000000000000000  0.5000000000000000  0.5000000000000000
  0.0000000000000000  0.0000000000000000  0.2960536893644889
  0.5000000000000000  0.5000000000000000  0.2039463106355111
  0.7824818107227931  0.7824818107227931  0.0000000000000000
  0.2175181892772069  0.7824818107227931  0.0000000000000000
  0.2175181892772069  0.2175181892772069 -0.0000000000000000
  0.7824818107227931  0.2175181892772069 -0.0000000000000000
  0.5000000000000000  0.5000000000000000  0.7960536893644889
  0.0000000000000000  0.0000000000000000  0.7039463106355111
  0.2824818107227930  0.2824818107227930  0.5000000000000000
  0.7175181892772069  0.2824818107227930  0.5000000000000000
  0.7175181892772069  0.7175181892772069  0.5000000000000000
  0.2824818107227930  0.7175181892772069  0.5000000000000000
 
  0.00000000E+00  0.00000000E+00  0.00000000E+00
  0.00000000E+00  0.00000000E+00  0.00000000E+00
  0.00000000E+00  0.00000000E+00  0.00000000E+00
  0.00000000E+00  0.00000000E+00  0.00000000E+00
  0.00000000E+00  0.00000000E+00  0.00000000E+00
  0.00000000E+00  0.00000000E+00  0.00000000E+00
  0.00000000E+00  0.00000000E+00  0.00000000E+00
  0.00000000E+00  0.00000000E+00  0.00000000E+00
  0.00000000E+00  0.00000000E+00  0.00000000E+00
  0.00000000E+00  0.00000000E+00  0.00000000E+00
  0.00000000E+00  0.00000000E+00  0.00000000E+00
  0.00000000E+00  0.00000000E+00  0.00000000E+00
  0.00000000E+00  0.00000000E+00  0.00000000E+00
  0.00000000E+00  0.00000000E+00  0.00000000E+00
  0.00000000E+00  0.00000000E+00  0.00000000E+00
  0.00000000E+00  0.00000000E+00  0.00000000E+00
  0.00000000E+00  0.00000000E+00  0.00000000E+00
  0.00000000E+00  0.00000000E+00  0.00000000E+00
  0.00000000E+00  0.00000000E+00  0.00000000E+00
  0.00000000E+00  0.00000000E+00  0.00000000E+00
