Ba3 Ti3 O9                              
   1.00000000000000     
     5.7483491751120210   -0.0000000000000000    0.0000000000000000
    -2.8741745875560105    4.9782162734994371   -0.0000000000000000
    -0.0000000000000000   -0.0000000000000000    7.0844895325561694
   Ba   Ti   O 
     3     3     9
Direct
  0.0000000000000000  0.0000000000000000  0.0000402746555161
  0.6666669999999968  0.3333330000000032  0.3333732746555192
  0.3333330000000032  0.6666669999999968  0.6667072746555200
  0.0000000000000000  0.0000000000000000  0.5134614344250167
  0.6666669999999968  0.3333330000000032  0.8467944344250128
  0.3333330000000032  0.6666669999999968  0.1801284344250135
  0.8363673371556878  0.6727356743113664  0.6493330969731551
  0.3272643256887202  0.1636326628443120  0.6493330969731551
  0.8363673371556016  0.1636326628443120  0.6493330969731551
  0.5030343371556846  0.0060686743113695  0.9826660969731583
  0.9939313256887170  0.4969656628443152  0.9826660969731583
  0.5030343371555984  0.4969656628443152  0.9826660969731583
  0.1697013371556815  0.3394016743113727  0.3159990969731544
  0.6605983256887138  0.8302986628443186  0.3159990969731544
  0.1697013371555950  0.8302986628443186  0.3159990969731544
 
  0.00000000E+00  0.00000000E+00  0.00000000E+00
  0.00000000E+00  0.00000000E+00  0.00000000E+00
  0.00000000E+00  0.00000000E+00  0.00000000E+00
  0.00000000E+00  0.00000000E+00  0.00000000E+00
  0.00000000E+00  0.00000000E+00  0.00000000E+00
  0.00000000E+00  0.00000000E+00  0.00000000E+00
  0.00000000E+00  0.00000000E+00  0.00000000E+00
  0.00000000E+00  0.00000000E+00  0.00000000E+00
  0.00000000E+00  0.00000000E+00  0.00000000E+00
  0.00000000E+00  0.00000000E+00  0.00000000E+00
  0.00000000E+00  0.00000000E+00  0.00000000E+00
  0.00000000E+00  0.00000000E+00  0.00000000E+00
  0.00000000E+00  0.00000000E+00  0.00000000E+00
  0.00000000E+00  0.00000000E+00  0.00000000E+00
  0.00000000E+00  0.00000000E+00  0.00000000E+00
