Sr4 W4 N12                              
   1.00000000000000     
    12.1508399426386813    0.0000000000000000   -3.0126404180052915
     0.0000000000000000    3.8251531616208281    0.0000000000000000
     0.0012826363050572    0.0000000000000000    6.7170819110171820
   Sr   W    N 
     4     4    12
Direct
  0.6177403215299142 -0.0000000000000000  0.3342142107209748
  0.8822596784700858  0.5000000000000000  0.6657857892790253
  0.1177403215299142  0.5000000000000000  0.3342142107209748
  0.3822596784700859  0.0000000000000000  0.6657857892790253
  0.8467111147393169  0.0000000000000000  0.1315469760358467
  0.6532888852606831  0.5000000000000000  0.8684530239641531
  0.3467111147393170  0.5000000000000000  0.1315469760358467
  0.1532888852606830  0.0000000000000000  0.8684530239641531
  0.8455923554833055  0.0000000000000000  0.3986652355984607
  0.5012490557866047  0.5000000000000000  0.8960643914477902
  0.9987509442133953 -0.0000000000000000  0.1039356085522101
  0.6807504194229447 -0.0000000000000000  0.9778262334803651
  0.8192495805770553  0.5000000000000000  0.0221737665196349
  0.6544076445166945  0.5000000000000000  0.6013347644015393
  0.3455923554833056  0.5000000000000000  0.3986652355984607
  0.0012490557866047  0.0000000000000000  0.8960643914477902
  0.4987509442133953  0.5000000000000000  0.1039356085522101
  0.1807504194229448  0.5000000000000000  0.9778262334803651
  0.3192495805770552 -0.0000000000000000  0.0221737665196349
  0.1544076445166944  0.0000000000000000  0.6013347644015393
 
  0.00000000E+00  0.00000000E+00  0.00000000E+00
  0.00000000E+00  0.00000000E+00  0.00000000E+00
  0.00000000E+00  0.00000000E+00  0.00000000E+00
  0.00000000E+00  0.00000000E+00  0.00000000E+00
  0.00000000E+00  0.00000000E+00  0.00000000E+00
  0.00000000E+00  0.00000000E+00  0.00000000E+00
  0.00000000E+00  0.00000000E+00  0.00000000E+00
  0.00000000E+00  0.00000000E+00  0.00000000E+00
  0.00000000E+00  0.00000000E+00  0.00000000E+00
  0.00000000E+00  0.00000000E+00  0.00000000E+00
  0.00000000E+00  0.00000000E+00  0.00000000E+00
  0.00000000E+00  0.00000000E+00  0.00000000E+00
  0.00000000E+00  0.00000000E+00  0.00000000E+00
  0.00000000E+00  0.00000000E+00  0.00000000E+00
  0.00000000E+00  0.00000000E+00  0.00000000E+00
  0.00000000E+00  0.00000000E+00  0.00000000E+00
  0.00000000E+00  0.00000000E+00  0.00000000E+00
  0.00000000E+00  0.00000000E+00  0.00000000E+00
  0.00000000E+00  0.00000000E+00  0.00000000E+00
  0.00000000E+00  0.00000000E+00  0.00000000E+00
