Tl3 I3 O9                               
   1.00000000000000     
     6.3217935704688877   -0.0000000079660653    0.0000000000000000
    -3.1608962989269189    5.4748330399458949    0.0000000000000000
     0.0000000000000000    0.0000000000000000    8.4160079025547461
   Tl   I    O 
     3     3     9
Direct
  0.3333330000000032  0.6666669999999968  0.6934221066793782
  0.0000000000000000  0.0000000000000000  0.0267551066793814
  0.6666669999999968  0.3333330000000032  0.3600881066793775
  0.3333330000000032  0.6666669999999968  0.1696118338806230
  0.0000000000000000  0.0000000000000000  0.5029448338806191
  0.6666669999999968  0.3333330000000032  0.8362778338806223
  0.6325248871913871  0.8162629435942819  0.2693333531466635
  0.1837370564057181  0.3674751128144251  0.2693333531466635
  0.1837370564029115  0.8162629435912834  0.2693333531466635
  0.2991918871913839  0.1495959435942851  0.6026663531466667
  0.8504040564057149  0.7008081128144283  0.6026663531466667
  0.8504040564029083  0.1495959435912866  0.6026663531466667
  0.9658588871913878  0.4829289435942812  0.9359993531466628
  0.5170710564057188  0.0341411128144244  0.9359993531466628
  0.5170710564029122  0.4829289435912827  0.9359993531466628
 
  0.00000000E+00  0.00000000E+00  0.00000000E+00
  0.00000000E+00  0.00000000E+00  0.00000000E+00
  0.00000000E+00  0.00000000E+00  0.00000000E+00
  0.00000000E+00  0.00000000E+00  0.00000000E+00
  0.00000000E+00  0.00000000E+00  0.00000000E+00
  0.00000000E+00  0.00000000E+00  0.00000000E+00
  0.00000000E+00  0.00000000E+00  0.00000000E+00
  0.00000000E+00  0.00000000E+00  0.00000000E+00
  0.00000000E+00  0.00000000E+00  0.00000000E+00
  0.00000000E+00  0.00000000E+00  0.00000000E+00
  0.00000000E+00  0.00000000E+00  0.00000000E+00
  0.00000000E+00  0.00000000E+00  0.00000000E+00
  0.00000000E+00  0.00000000E+00  0.00000000E+00
  0.00000000E+00  0.00000000E+00  0.00000000E+00
  0.00000000E+00  0.00000000E+00  0.00000000E+00
