Tl1 I1 O3                               
   1.00000000000000     
     4.6021684635591837    0.0761908620102232    0.0744478684859110
     0.1851779952262239    4.5990725939876018    0.0744478684867649
     0.1851779952259018    0.1808425442847819    4.5961187086469071
   Tl   I    O 
     1     1     3
Direct
  0.0267503204929582  0.0267503204929653  0.0267503204929653
  0.5029429166697170  0.5029429166697170  0.5029429166697170
  0.4530744754918743  0.9018568098535908  0.4530744754918743
  0.4530744754918743  0.4530744754918743  0.9018568098535908
  0.9018568098535908  0.4530744754918743  0.4530744754918743
 
  0.00000000E+00  0.00000000E+00  0.00000000E+00
  0.00000000E+00  0.00000000E+00  0.00000000E+00
  0.00000000E+00  0.00000000E+00  0.00000000E+00
  0.00000000E+00  0.00000000E+00  0.00000000E+00
  0.00000000E+00  0.00000000E+00  0.00000000E+00
