Na6 Sb6 O18                             
   1.00000000000000     
     5.3741626616252560    0.0000000047515986    0.0000000000000000
    -2.6870813349276323    4.6541608628078537   -0.0000000000000000
     0.0000000000000000   -0.0000000000000000   16.0764735892772954
   Na   Sb   O 
     6     6    18
Direct
  0.3333330000000032  0.6666669999999968  0.0286060698939635
  0.3333330000000032  0.6666669999999968  0.3047279301060372
 -0.0000000000000000 -0.0000000000000000  0.3619390698939596
 -0.0000000000000000 -0.0000000000000000  0.6380609301060403
  0.6666669999999968  0.3333330000000032  0.6952720698939630
  0.6666669999999968  0.3333330000000032  0.9713939301060364
 -0.0000000000000000 -0.0000000000000000  0.1607609742712560
  0.6666669999999968  0.3333330000000032  0.1725720257287472
  0.6666669999999968  0.3333330000000032  0.4940939742712521
  0.3333330000000032  0.6666669999999968  0.5059060257287480
  0.3333330000000032  0.6666669999999968  0.8274279742712527
 -0.0000000000000000 -0.0000000000000000  0.8392390257287441
  0.9451058411385348  0.6560334086453362  0.0957017662820817
  0.7109265675068474  0.0548941588619216  0.0957017662820817
  0.3439665913546202  0.2890734324927397  0.0957017662820817
  0.7215601588614645  0.6773005913546645  0.2376322337179190
  0.3226994086453791  0.0442605675072610  0.2376322337179190
  0.9557394324931520  0.2784398411380792  0.2376322337179190
  0.6117728411385316  0.9893664086453323  0.4290347662820779
  0.3775935675068442  0.3882271588619247  0.4290347662820779
  0.0106335913546241  0.6224064324927427  0.4290347662820779
  0.3882271588614683  0.0106335913546676  0.5709652337179221
  0.9893664086453759  0.3775935675072571  0.5709652337179221
  0.6224064324931559  0.6117728411380752  0.5709652337179221
  0.2784398411385356  0.3226994086453356  0.7623677662820811
  0.0442605675068481  0.7215601588619209  0.7623677662820811
  0.6773005913546208  0.9557394324927388  0.7623677662820811
  0.0548941588614651  0.3439665913546637  0.9042982337179182
  0.6560334086453798  0.7109265675072605  0.9042982337179182
  0.2890734324931526  0.9451058411380784  0.9042982337179182
 
  0.00000000E+00  0.00000000E+00  0.00000000E+00
  0.00000000E+00  0.00000000E+00  0.00000000E+00
  0.00000000E+00  0.00000000E+00  0.00000000E+00
  0.00000000E+00  0.00000000E+00  0.00000000E+00
  0.00000000E+00  0.00000000E+00  0.00000000E+00
  0.00000000E+00  0.00000000E+00  0.00000000E+00
  0.00000000E+00  0.00000000E+00  0.00000000E+00
  0.00000000E+00  0.00000000E+00  0.00000000E+00
  0.00000000E+00  0.00000000E+00  0.00000000E+00
  0.00000000E+00  0.00000000E+00  0.00000000E+00
  0.00000000E+00  0.00000000E+00  0.00000000E+00
  0.00000000E+00  0.00000000E+00  0.00000000E+00
  0.00000000E+00  0.00000000E+00  0.00000000E+00
  0.00000000E+00  0.00000000E+00  0.00000000E+00
  0.00000000E+00  0.00000000E+00  0.00000000E+00
  0.00000000E+00  0.00000000E+00  0.00000000E+00
  0.00000000E+00  0.00000000E+00  0.00000000E+00
  0.00000000E+00  0.00000000E+00  0.00000000E+00
  0.00000000E+00  0.00000000E+00  0.00000000E+00
  0.00000000E+00  0.00000000E+00  0.00000000E+00
  0.00000000E+00  0.00000000E+00  0.00000000E+00
  0.00000000E+00  0.00000000E+00  0.00000000E+00
  0.00000000E+00  0.00000000E+00  0.00000000E+00
  0.00000000E+00  0.00000000E+00  0.00000000E+00
  0.00000000E+00  0.00000000E+00  0.00000000E+00
  0.00000000E+00  0.00000000E+00  0.00000000E+00
  0.00000000E+00  0.00000000E+00  0.00000000E+00
  0.00000000E+00  0.00000000E+00  0.00000000E+00
  0.00000000E+00  0.00000000E+00  0.00000000E+00
  0.00000000E+00  0.00000000E+00  0.00000000E+00
