K3 Nb3 O9                               
   1.00000000000000     
     5.7346705200879526   -0.0000000000000000    0.0000000000000000
    -2.8673352600439763    4.9663706785844077   -0.0000000000000000
     0.0000000000000000   -0.0000000000000000    7.0585619638009200
   K    Nb   O 
     3     3     9
Direct
 -0.0000000000000000  0.0000000000000000  0.9871406555145043
  0.6666669999999968  0.3333330000000032  0.3204736555145074
  0.3333330000000032  0.6666669999999968  0.6538076555145081
 -0.0000000000000000  0.0000000000000000  0.5006027344103808
  0.6666669999999968  0.3333330000000032  0.8339357344103769
  0.3333330000000032  0.6666669999999968  0.1672697344103776
  0.8351800928235841  0.1648199071793806  0.6352515366917054
  0.3296408143558010  0.1648199071793806  0.6352515366917054
  0.8351800928206196  0.6703591856412343  0.6352515366917054
  0.5018460928235834  0.4981539071793812  0.9685855366917061
  0.9963068143558004  0.4981539071793812  0.9685855366917061
  0.5018460928206189  0.0036931856412350  0.9685855366917061
  0.1685130928235802  0.8314869071793843  0.3019185366917021
  0.6629738143558043  0.8314869071793843  0.3019185366917021
  0.1685130928206156  0.3370261856412311  0.3019185366917021
 
  0.00000000E+00  0.00000000E+00  0.00000000E+00
  0.00000000E+00  0.00000000E+00  0.00000000E+00
  0.00000000E+00  0.00000000E+00  0.00000000E+00
  0.00000000E+00  0.00000000E+00  0.00000000E+00
  0.00000000E+00  0.00000000E+00  0.00000000E+00
  0.00000000E+00  0.00000000E+00  0.00000000E+00
  0.00000000E+00  0.00000000E+00  0.00000000E+00
  0.00000000E+00  0.00000000E+00  0.00000000E+00
  0.00000000E+00  0.00000000E+00  0.00000000E+00
  0.00000000E+00  0.00000000E+00  0.00000000E+00
  0.00000000E+00  0.00000000E+00  0.00000000E+00
  0.00000000E+00  0.00000000E+00  0.00000000E+00
  0.00000000E+00  0.00000000E+00  0.00000000E+00
  0.00000000E+00  0.00000000E+00  0.00000000E+00
  0.00000000E+00  0.00000000E+00  0.00000000E+00
