Cs4 Au4 Se12
1.0
6.230930 0.000000 -2.479750
0.000000 14.062862 0.000000
0.000000 0.000000 7.797863
Cs Au Se
4 4 12
direct
0.000000 0.853008 0.750000 Cs
0.500000 0.646992 0.250000 Cs
0.500000 0.353008 0.750000 Cs
0.000000 0.146992 0.250000 Cs
0.500000 0.923299 0.250000 Au
0.000000 0.576701 0.750000 Au
0.000000 0.423299 0.250000 Au
0.500000 0.076701 0.750000 Au
0.783407 0.589007 0.942289 Se
0.283407 0.910993 0.442289 Se
0.716593 0.910993 0.057711 Se
0.216593 0.589007 0.557711 Se
0.500000 0.692877 0.750000 Se
0.000000 0.807123 0.250000 Se
0.283407 0.089007 0.942289 Se
0.783407 0.410993 0.442289 Se
0.216593 0.410993 0.057711 Se
0.716593 0.089007 0.557711 Se
0.000000 0.192877 0.750000 Se
0.500000 0.307123 0.250000 Se
