Mg6 C6 O18
1.0
4.692126 0.000000 0.000000
-2.346063 4.063500 0.000000
0.000000 0.000000 15.197964
Mg C O
6 6 18
direct
0.333333 0.666667 0.166667 Mg
0.000000 0.000000 0.000000 Mg
0.000000 0.000000 0.500000 Mg
0.666667 0.333333 0.333333 Mg
0.666667 0.333333 0.833333 Mg
0.333333 0.666667 0.666667 Mg
0.666667 0.333333 0.083333 C
0.000000 0.000000 0.250000 C
0.333333 0.666667 0.416667 C
0.666667 0.333333 0.583333 C
0.000000 0.000000 0.750000 C
0.333333 0.666667 0.916667 C
0.390173 0.056839 0.083333 O
0.666667 0.609827 0.083333 O
0.723506 0.000000 0.250000 O
0.276494 0.276494 0.250000 O
0.000000 0.723506 0.250000 O
0.943161 0.333333 0.083333 O
0.056839 0.390173 0.416667 O
0.333333 0.943161 0.416667 O
0.390173 0.333333 0.583333 O
0.943161 0.609827 0.583333 O
0.666667 0.056839 0.583333 O
0.609827 0.666667 0.416667 O
0.723506 0.723506 0.750000 O
0.000000 0.276494 0.750000 O
0.056839 0.666667 0.916667 O
0.609827 0.943161 0.916667 O
0.333333 0.390173 0.916667 O
0.276494 0.000000 0.750000 O
