Cs2 I2 O6                               
   1.00000000000000     
     4.7504024684313890    0.0000000000000000    0.0000000000000000
     0.0000000000000000    6.7452426023096015    0.0000000000000000
     0.0000000000000000    0.0000000000000000    6.8366505899476113
   Cs   I    O 
     2     2     6
Direct
  0.9984239328913431  0.0000000000000000  0.5100866879088618
  0.0015760631086567  0.5000000000000000  0.0100866909088586
  0.4718932977390471  0.0000000000000000  0.9929413522032193
  0.5281067022609531  0.5000000000000000  0.4929413522032192
  0.9092789310540937  0.5000000000000000  0.5357100121002339
  0.4947903365053085  0.7098007317419545  0.3241264613938429
  0.4947903365053085  0.2901992682580454  0.3241264613938429
  0.5052096334946892  0.2098007467419521  0.8241264613938427
  0.0907210759459034  0.0000000000000000  0.0357100121002338
  0.5052096334946892  0.7901992682580455  0.8241264613938427
 
  0.00000000E+00  0.00000000E+00  0.00000000E+00
  0.00000000E+00  0.00000000E+00  0.00000000E+00
  0.00000000E+00  0.00000000E+00  0.00000000E+00
  0.00000000E+00  0.00000000E+00  0.00000000E+00
  0.00000000E+00  0.00000000E+00  0.00000000E+00
  0.00000000E+00  0.00000000E+00  0.00000000E+00
  0.00000000E+00  0.00000000E+00  0.00000000E+00
  0.00000000E+00  0.00000000E+00  0.00000000E+00
  0.00000000E+00  0.00000000E+00  0.00000000E+00
  0.00000000E+00  0.00000000E+00  0.00000000E+00
