Cs2 I2 O6
1.0
4.768978 0.000000 0.000000
0.000000 6.739258 0.000000
0.000000 0.000000 6.825151
Cs I O
2 2 6
direct
0.995345 0.000000 0.510602 Cs
0.004655 0.500000 0.010602 Cs
0.475852 0.000000 0.993604 I
0.524148 0.500000 0.493604 I
0.904518 0.500000 0.532785 O
0.487389 0.710122 0.325000 O
0.487389 0.289878 0.325000 O
0.512611 0.210122 0.825000 O
0.095482 0.000000 0.032785 O
0.512611 0.789878 0.825000 O
