Cd6 Sn6 O18                             
   1.00000000000000     
     5.5503302290862280    0.0000000131280995   -0.0000000000000000
    -2.7751651259123826    4.8067273969767035    0.0000000000000000
    -0.0000000000000000    0.0000000000000000   15.2813821095061257
   Cd   Sn   O 
     6     6    18
Direct
  0.3333330000000032  0.6666669999999968  0.3002003778166860
  0.3333330000000032  0.6666669999999968  0.0331336221833148
 -0.0000000000000000  0.0000000000000000  0.6335333778166892
 -0.0000000000000000  0.0000000000000000  0.3664666221833108
  0.6666669999999968  0.3333330000000032  0.9668663778166853
  0.6666669999999968  0.3333330000000032  0.6997996221833140
  0.6666669999999968  0.3333330000000032  0.1786466555281892
 -0.0000000000000000  0.0000000000000000  0.1546863444718140
  0.3333330000000032  0.6666669999999968  0.5119806555281899
  0.6666669999999968  0.3333330000000032  0.4880193444718101
 -0.0000000000000000  0.0000000000000000  0.8453136555281860
  0.3333330000000032  0.6666669999999968  0.8213533444718107
  0.9685592285169839  0.2817305771432172  0.2430636156223623
  0.9483975771432186  0.6465053486262369  0.0902693843776338
  0.3534946513737614  0.3018922285169841  0.0902693843776338
  0.3131723486262354  0.0314407714830120  0.2430636156223623
  0.7182694228567853  0.6868276513737663  0.2430636156223623
  0.6981077714830199  0.0516024228567788  0.0902693843776338
  0.6352252285169833  0.6150645771432179  0.5763976156223629
  0.6150645771432154  0.9798383486262330  0.4236023843776370
  0.0201616513737653  0.6352252285169874  0.4236023843776370
  0.9798383486262346  0.3647747714830127  0.5763976156223629
  0.3849354228567847  0.0201616513737668  0.5763976156223629
  0.3647747714830167  0.3849354228567821  0.4236023843776370
  0.3018922285169801  0.9483975771432211  0.9097306156223661
  0.2817305771432146  0.3131723486262338  0.7569363843776378
  0.6868276513737647  0.9685592285169881  0.7569363843776378
  0.6465053486262385  0.6981077714830158  0.9097306156223661
  0.0516024228567814  0.3534946513737630  0.9097306156223661
  0.0314407714830161  0.7182694228567827  0.7569363843776378
 
  0.00000000E+00  0.00000000E+00  0.00000000E+00
  0.00000000E+00  0.00000000E+00  0.00000000E+00
  0.00000000E+00  0.00000000E+00  0.00000000E+00
  0.00000000E+00  0.00000000E+00  0.00000000E+00
  0.00000000E+00  0.00000000E+00  0.00000000E+00
  0.00000000E+00  0.00000000E+00  0.00000000E+00
  0.00000000E+00  0.00000000E+00  0.00000000E+00
  0.00000000E+00  0.00000000E+00  0.00000000E+00
  0.00000000E+00  0.00000000E+00  0.00000000E+00
  0.00000000E+00  0.00000000E+00  0.00000000E+00
  0.00000000E+00  0.00000000E+00  0.00000000E+00
  0.00000000E+00  0.00000000E+00  0.00000000E+00
  0.00000000E+00  0.00000000E+00  0.00000000E+00
  0.00000000E+00  0.00000000E+00  0.00000000E+00
  0.00000000E+00  0.00000000E+00  0.00000000E+00
  0.00000000E+00  0.00000000E+00  0.00000000E+00
  0.00000000E+00  0.00000000E+00  0.00000000E+00
  0.00000000E+00  0.00000000E+00  0.00000000E+00
  0.00000000E+00  0.00000000E+00  0.00000000E+00
  0.00000000E+00  0.00000000E+00  0.00000000E+00
  0.00000000E+00  0.00000000E+00  0.00000000E+00
  0.00000000E+00  0.00000000E+00  0.00000000E+00
  0.00000000E+00  0.00000000E+00  0.00000000E+00
  0.00000000E+00  0.00000000E+00  0.00000000E+00
  0.00000000E+00  0.00000000E+00  0.00000000E+00
  0.00000000E+00  0.00000000E+00  0.00000000E+00
  0.00000000E+00  0.00000000E+00  0.00000000E+00
  0.00000000E+00  0.00000000E+00  0.00000000E+00
  0.00000000E+00  0.00000000E+00  0.00000000E+00
  0.00000000E+00  0.00000000E+00  0.00000000E+00
