Na6 Nb6 O18                             
   1.00000000000000     
     5.5161560317923177    0.0000000000000000    0.0000000000000000
    -2.7580780158961589    4.7771312615543273   -0.0000000000000000
    -0.0000000000000000   -0.0000000000000000   13.9014660473423923
   Na   Nb   O 
     6     6    18
Direct
  0.6666669999999968  0.3333330000000032  0.0581861301681852
 -0.0000000000000000  0.0000000000000000  0.2248531301681820
  0.3333330000000032  0.6666669999999968  0.3915201301681859
  0.6666669999999968  0.3333330000000032  0.5581861301681852
 -0.0000000000000000  0.0000000000000000  0.7248531301681820
  0.3333330000000032  0.6666669999999968  0.8915201301681859
  0.6666669999999968  0.3333330000000032  0.3197807191599611
  0.3333330000000032  0.6666669999999968  0.1531147191599546
  0.3333330000000032  0.6666669999999968  0.6531147191599547
 -0.0000000000000000  0.0000000000000000  0.4864477191599579
 -0.0000000000000000  0.0000000000000000  0.9864477191599579
  0.6666669999999968  0.3333330000000032  0.8197807191599611
  0.0960039283661062  0.3306006846000510  0.0867330502239554
  0.2345967562340452  0.9039960716339314  0.0867330502239554
  0.6693993153998558  0.7654032437660104  0.0867330502239554
  0.4293369283661580  0.4320702437660145  0.2534000502239522
  0.5679297562339480  0.9972676846000550  0.2534000502239522
  0.0027323153998893  0.5706630716339353  0.2534000502239522
  0.7626709283661030  0.6639336846000543  0.4200660502239515
  0.9012637562340420  0.2373290716339345  0.4200660502239515
  0.3360663153998524  0.0987362437660138  0.4200660502239515
  0.0960039283661620  0.7654032437660104  0.5867330502239554
  0.2345967562339520  0.3306006846000510  0.5867330502239554
  0.6693993153998932  0.9039960716339314  0.5867330502239554
  0.4293369283661023  0.9972676846000550  0.7534000502239522
  0.5679297562340413  0.5706630716339353  0.7534000502239522
  0.0027323153998518  0.4320702437660145  0.7534000502239522
  0.7626709283661587  0.0987362437660138  0.9200660502239515
  0.9012637562339487  0.6639336846000543  0.9200660502239515
  0.3360663153998900  0.2373290716339345  0.9200660502239515
 
  0.00000000E+00  0.00000000E+00  0.00000000E+00
  0.00000000E+00  0.00000000E+00  0.00000000E+00
  0.00000000E+00  0.00000000E+00  0.00000000E+00
  0.00000000E+00  0.00000000E+00  0.00000000E+00
  0.00000000E+00  0.00000000E+00  0.00000000E+00
  0.00000000E+00  0.00000000E+00  0.00000000E+00
  0.00000000E+00  0.00000000E+00  0.00000000E+00
  0.00000000E+00  0.00000000E+00  0.00000000E+00
  0.00000000E+00  0.00000000E+00  0.00000000E+00
  0.00000000E+00  0.00000000E+00  0.00000000E+00
  0.00000000E+00  0.00000000E+00  0.00000000E+00
  0.00000000E+00  0.00000000E+00  0.00000000E+00
  0.00000000E+00  0.00000000E+00  0.00000000E+00
  0.00000000E+00  0.00000000E+00  0.00000000E+00
  0.00000000E+00  0.00000000E+00  0.00000000E+00
  0.00000000E+00  0.00000000E+00  0.00000000E+00
  0.00000000E+00  0.00000000E+00  0.00000000E+00
  0.00000000E+00  0.00000000E+00  0.00000000E+00
  0.00000000E+00  0.00000000E+00  0.00000000E+00
  0.00000000E+00  0.00000000E+00  0.00000000E+00
  0.00000000E+00  0.00000000E+00  0.00000000E+00
  0.00000000E+00  0.00000000E+00  0.00000000E+00
  0.00000000E+00  0.00000000E+00  0.00000000E+00
  0.00000000E+00  0.00000000E+00  0.00000000E+00
  0.00000000E+00  0.00000000E+00  0.00000000E+00
  0.00000000E+00  0.00000000E+00  0.00000000E+00
  0.00000000E+00  0.00000000E+00  0.00000000E+00
  0.00000000E+00  0.00000000E+00  0.00000000E+00
  0.00000000E+00  0.00000000E+00  0.00000000E+00
  0.00000000E+00  0.00000000E+00  0.00000000E+00
