Cs3 Br3 O9
1.0
6.632152 0.000000 0.000000
-3.316076 5.743612 0.000000
0.000000 0.000000 8.647863
Cs Br O
3 3 9
direct
0.333333 0.666667 0.664970 Cs
0.000000 0.000000 0.998303 Cs
0.666667 0.333333 0.331636 Cs
0.333333 0.666667 0.133325 Br
0.000000 0.000000 0.466658 Br
0.666667 0.333333 0.799991 Br
0.063938 0.531969 0.054703 O
0.468031 0.531969 0.054703 O
0.468031 0.936062 0.054703 O
0.730605 0.865302 0.388036 O
0.134698 0.865302 0.388036 O
0.134698 0.269395 0.388036 O
0.397271 0.198636 0.721370 O
0.801364 0.198636 0.721370 O
0.801364 0.602729 0.721370 O
