Rb4 Au4 I12                             
   1.00000000000000     
    12.0684164686443829    0.0000000000000000   -6.2544407279473635
     0.0000000000000000    8.0838637689394979    0.0000000000000000
     0.1977613533107845    0.0000000000000000    8.9696524985682586
   Rb   Au   I 
     4     4    12
Direct
  0.7187525991012509  0.0000000000000000  0.2165434129046423
  0.2812474008987492  0.0000000000000000  0.7834565870953574
  0.2187525991012506  0.5000000000000000  0.2165434129046423
  0.7812474008987491  0.5000000000000000  0.7834565870953574
  0.0000000000000000  0.0000000000000000  0.0000000000000000
  0.5000000000000000  0.0000000000000000  0.5000000000000000
  0.5000000000000000  0.5000000000000000  0.0000000000000000
  0.0000000000000000  0.5000000000000000  0.5000000000000000
  0.2864947679662088  0.0000000000000000  0.3669891408586402
  0.5403808130622944  0.7345388038021093  0.8209809110105745
  0.4596201869377028  0.2654601961978862  0.1790190889894255
  0.4596201869377028  0.7345388038021093  0.1790190889894255
  0.5403808130622944  0.2654601961978862  0.8209809110105745
  0.7135052320337845  0.0000000000000000  0.6330108591413598
  0.7864947679662155  0.5000000000000000  0.3669891408586402
  0.0403808130622946  0.2345398038021138  0.8209809110105745
  0.9596191869377056  0.7654611961978907  0.1790190889894255
  0.9596191869377056  0.2345398038021138  0.1790190889894255
  0.0403808130622946  0.7654611961978907  0.8209809110105745
  0.2135052320337913  0.5000000000000000  0.6330108591413598
 
  0.00000000E+00  0.00000000E+00  0.00000000E+00
  0.00000000E+00  0.00000000E+00  0.00000000E+00
  0.00000000E+00  0.00000000E+00  0.00000000E+00
  0.00000000E+00  0.00000000E+00  0.00000000E+00
  0.00000000E+00  0.00000000E+00  0.00000000E+00
  0.00000000E+00  0.00000000E+00  0.00000000E+00
  0.00000000E+00  0.00000000E+00  0.00000000E+00
  0.00000000E+00  0.00000000E+00  0.00000000E+00
  0.00000000E+00  0.00000000E+00  0.00000000E+00
  0.00000000E+00  0.00000000E+00  0.00000000E+00
  0.00000000E+00  0.00000000E+00  0.00000000E+00
  0.00000000E+00  0.00000000E+00  0.00000000E+00
  0.00000000E+00  0.00000000E+00  0.00000000E+00
  0.00000000E+00  0.00000000E+00  0.00000000E+00
  0.00000000E+00  0.00000000E+00  0.00000000E+00
  0.00000000E+00  0.00000000E+00  0.00000000E+00
  0.00000000E+00  0.00000000E+00  0.00000000E+00
  0.00000000E+00  0.00000000E+00  0.00000000E+00
  0.00000000E+00  0.00000000E+00  0.00000000E+00
  0.00000000E+00  0.00000000E+00  0.00000000E+00
