Sc6 B6 O18                              
   1.00000000000000     
     4.7781447441946554    0.0000000000000000   -0.0000000000000000
    -2.3890723720973277    4.1379952728027183    0.0000000000000000
     0.0000000000000000   -0.0000000000000000   15.3709020136819632
   Sc   B    O 
     6     6    18
Direct
  0.0000000000000000  0.0000000000000000  0.0000000000000000
  0.3333330000000032  0.6666669999999968  0.1666669999999968
  0.6666669999999968  0.3333330000000032  0.3333330000000032
  0.0000000000000000  0.0000000000000000  0.5000000000000000
  0.3333330000000032  0.6666669999999968  0.6666669999999968
  0.6666669999999968  0.3333330000000032  0.8333330000000032
  0.6666669999999968  0.3333330000000032  0.0833330000000032
  0.0000000000000000  0.0000000000000000  0.2500000000000000
  0.3333330000000032  0.6666669999999968  0.4166669999999968
  0.6666669999999968  0.3333330000000032  0.5833330000000032
  0.0000000000000000  0.0000000000000000  0.7500000000000000
  0.3333330000000032  0.6666669999999968  0.9166669999999968
  0.6666670000002863  0.0428182068413306  0.0833330000000032
  0.9571817931589589  0.6238477931586686  0.0833330000000032
  0.2905147931592518  0.0000000000000000  0.2500000000000000
 -0.0000000000002896  0.2905147931586726  0.2500000000000000
  0.7094852068410379  0.7094852068413275  0.2500000000000000
  0.3761522068407521  0.3333330000000032  0.0833330000000032
  0.3333330000002928  0.3761522068413313  0.4166669999999968
  0.6238477931589582  0.9571817931586692  0.4166669999999968
  0.9571817931592485  0.3333330000000032  0.5833330000000032
  0.6666669999997072  0.6238477931586686  0.5833330000000032
  0.3761522068410417  0.0428182068413306  0.5833330000000032
  0.0428182068407515  0.6666669999999968  0.4166669999999968
  0.0000000000002896  0.7094852068413275  0.7500000000000000
  0.2905147931589622  0.2905147931586726  0.7500000000000000
  0.6238477931592478  0.6666669999999968  0.9166669999999968
  0.3333329999997136  0.9571817931586692  0.9166669999999968
  0.0428182068410410  0.3761522068413313  0.9166669999999968
  0.7094852068407483  0.0000000000000000  0.7500000000000000
 
  0.00000000E+00  0.00000000E+00  0.00000000E+00
  0.00000000E+00  0.00000000E+00  0.00000000E+00
  0.00000000E+00  0.00000000E+00  0.00000000E+00
  0.00000000E+00  0.00000000E+00  0.00000000E+00
  0.00000000E+00  0.00000000E+00  0.00000000E+00
  0.00000000E+00  0.00000000E+00  0.00000000E+00
  0.00000000E+00  0.00000000E+00  0.00000000E+00
  0.00000000E+00  0.00000000E+00  0.00000000E+00
  0.00000000E+00  0.00000000E+00  0.00000000E+00
  0.00000000E+00  0.00000000E+00  0.00000000E+00
  0.00000000E+00  0.00000000E+00  0.00000000E+00
  0.00000000E+00  0.00000000E+00  0.00000000E+00
  0.00000000E+00  0.00000000E+00  0.00000000E+00
  0.00000000E+00  0.00000000E+00  0.00000000E+00
  0.00000000E+00  0.00000000E+00  0.00000000E+00
  0.00000000E+00  0.00000000E+00  0.00000000E+00
  0.00000000E+00  0.00000000E+00  0.00000000E+00
  0.00000000E+00  0.00000000E+00  0.00000000E+00
  0.00000000E+00  0.00000000E+00  0.00000000E+00
  0.00000000E+00  0.00000000E+00  0.00000000E+00
  0.00000000E+00  0.00000000E+00  0.00000000E+00
  0.00000000E+00  0.00000000E+00  0.00000000E+00
  0.00000000E+00  0.00000000E+00  0.00000000E+00
  0.00000000E+00  0.00000000E+00  0.00000000E+00
  0.00000000E+00  0.00000000E+00  0.00000000E+00
  0.00000000E+00  0.00000000E+00  0.00000000E+00
  0.00000000E+00  0.00000000E+00  0.00000000E+00
  0.00000000E+00  0.00000000E+00  0.00000000E+00
  0.00000000E+00  0.00000000E+00  0.00000000E+00
  0.00000000E+00  0.00000000E+00  0.00000000E+00
