In2 Ga2 O6                              
   1.00000000000000     
     3.3881663603722783    0.0000000000000000    0.0000000000000000
    -1.6940831801861391    2.9342381196860372    0.0000000000000000
     0.0000000000000000    0.0000000000000000   12.2363779738663609
   In   Ga   O 
     2     2     6
Direct
  0.0000000000000000  0.0000000000000000 -0.0000000000000000
  0.0000000000000000  0.0000000000000000  0.5000000000000000
  0.3333330000000032  0.6666669999999968  0.2500000000000000
  0.6666669999999968  0.3333330000000032  0.7500000000000000
  0.6666669999999968  0.3333330000000032  0.9127874166962907
  0.3333330000000032  0.6666669999999968  0.4127874166962906
  0.3333330000000032  0.6666669999999968  0.0872125833037094
  0.6666669999999968  0.3333330000000032  0.5872125833037093
 -0.0000000000000000  0.0000000000000000  0.7500000000000000
  0.0000000000000000 -0.0000000000000000  0.2500000000000000
 
  0.00000000E+00  0.00000000E+00  0.00000000E+00
  0.00000000E+00  0.00000000E+00  0.00000000E+00
  0.00000000E+00  0.00000000E+00  0.00000000E+00
  0.00000000E+00  0.00000000E+00  0.00000000E+00
  0.00000000E+00  0.00000000E+00  0.00000000E+00
  0.00000000E+00  0.00000000E+00  0.00000000E+00
  0.00000000E+00  0.00000000E+00  0.00000000E+00
  0.00000000E+00  0.00000000E+00  0.00000000E+00
  0.00000000E+00  0.00000000E+00  0.00000000E+00
  0.00000000E+00  0.00000000E+00  0.00000000E+00
