Ba2 Se2 O6
1.0
4.530573 0.000000 -1.464780
0.000000 5.770569 0.000000
0.000000 0.000000 7.062389
Ba Se O
2 2 6
direct
0.654071 0.750000 0.294727 Ba
0.345929 0.250000 0.705273 Ba
0.064741 0.250000 0.163562 Se
0.935259 0.750000 0.836438 Se
0.827103 0.982541 0.675490 O
0.172897 0.482541 0.324510 O
0.172897 0.017459 0.324510 O
0.827103 0.517459 0.675490 O
0.313710 0.750000 0.886148 O
0.686290 0.250000 0.113852 O
