Li6 Ta6 O18                             
   1.00000000000000     
     5.1925225115254268   -0.0000000000000000    0.0000000000000000
    -2.5962612557627134    4.4968569494380954    0.0000000000000000
     0.0000000000000000   -0.0000000000000000   13.9151241214272243
   Li   Ta   O 
     6     6    18
Direct
  0.6666669999999968  0.3333330000000032  0.0514898921407169
  0.0000000000000000 -0.0000000000000000  0.2181568921407136
  0.3333330000000032  0.6666669999999968  0.3848238921407175
  0.6666669999999968  0.3333330000000032  0.5514898921407169
  0.0000000000000000 -0.0000000000000000  0.7181568921407137
  0.3333330000000032  0.6666669999999968  0.8848238921407175
  0.0000000000000000 -0.0000000000000000  0.0008930515739721
  0.3333330000000032  0.6666669999999968  0.1675600515739760
  0.6666669999999968  0.3333330000000032  0.3342260515739753
  0.0000000000000000 -0.0000000000000000  0.5008930515739720
  0.3333330000000032  0.6666669999999968  0.6675600515739759
  0.6666669999999968  0.3333330000000032  0.8342260515739752
  0.0398698291844730  0.3239653850934631  0.0975826854284353
  0.3732028291844298  0.3825704440908350  0.2642496854284392
  0.0093676149065723  0.6267971708157053  0.2642496854284392
  0.6174295559089910  0.9906323850934668  0.2642496854284392
  0.6760346149064018  0.7159034440908310  0.0975826854284353
  0.2840965559091297  0.9601301708157014  0.0975826854284353
  0.7065358291844724  0.6572993850934636  0.4309166854284360
  0.0398698291844337  0.7159034440908310  0.5975826854284355
  0.6760346149065761  0.9601301708157014  0.5975826854284355
  0.2840965559089947  0.3239653850934631  0.5975826854284355
  0.3427006149064012  0.0492374440908318  0.4309166854284360
  0.9507625559091289  0.2934641708157019  0.4309166854284360
  0.3732028291844691  0.9906323850934668  0.7642496854284394
  0.7065358291844330  0.0492374440908318  0.9309166854284362
  0.3427006149065755  0.2934641708157019  0.9309166854284362
  0.9507625559089942  0.6572993850934636  0.9309166854284362
  0.0093676149063980  0.3825704440908350  0.7642496854284394
  0.6174295559091257  0.6267971708157053  0.7642496854284394
 
  0.00000000E+00  0.00000000E+00  0.00000000E+00
  0.00000000E+00  0.00000000E+00  0.00000000E+00
  0.00000000E+00  0.00000000E+00  0.00000000E+00
  0.00000000E+00  0.00000000E+00  0.00000000E+00
  0.00000000E+00  0.00000000E+00  0.00000000E+00
  0.00000000E+00  0.00000000E+00  0.00000000E+00
  0.00000000E+00  0.00000000E+00  0.00000000E+00
  0.00000000E+00  0.00000000E+00  0.00000000E+00
  0.00000000E+00  0.00000000E+00  0.00000000E+00
  0.00000000E+00  0.00000000E+00  0.00000000E+00
  0.00000000E+00  0.00000000E+00  0.00000000E+00
  0.00000000E+00  0.00000000E+00  0.00000000E+00
  0.00000000E+00  0.00000000E+00  0.00000000E+00
  0.00000000E+00  0.00000000E+00  0.00000000E+00
  0.00000000E+00  0.00000000E+00  0.00000000E+00
  0.00000000E+00  0.00000000E+00  0.00000000E+00
  0.00000000E+00  0.00000000E+00  0.00000000E+00
  0.00000000E+00  0.00000000E+00  0.00000000E+00
  0.00000000E+00  0.00000000E+00  0.00000000E+00
  0.00000000E+00  0.00000000E+00  0.00000000E+00
  0.00000000E+00  0.00000000E+00  0.00000000E+00
  0.00000000E+00  0.00000000E+00  0.00000000E+00
  0.00000000E+00  0.00000000E+00  0.00000000E+00
  0.00000000E+00  0.00000000E+00  0.00000000E+00
  0.00000000E+00  0.00000000E+00  0.00000000E+00
  0.00000000E+00  0.00000000E+00  0.00000000E+00
  0.00000000E+00  0.00000000E+00  0.00000000E+00
  0.00000000E+00  0.00000000E+00  0.00000000E+00
  0.00000000E+00  0.00000000E+00  0.00000000E+00
  0.00000000E+00  0.00000000E+00  0.00000000E+00
