Cs6 Pb6 F18                             
   1.00000000000000     
     6.8910555077120863   -0.0000000000000000    0.0000000000000000
    -3.4455277538560432    5.9678298073292053   -0.0000000000000000
     0.0000000000000000   -0.0000000000000000   16.7008571001885997
   Cs   Pb   F 
     6     6    18
Direct
  0.3333330000000032  0.6666669999999968  0.4227789043626631
  0.3333330000000032  0.6666669999999968  0.9227789043626634
 -0.0000000000000000 -0.0000000000000000  0.7561119043626666
 -0.0000000000000000 -0.0000000000000000  0.2561119043626663
  0.6666669999999968  0.3333330000000032  0.0894449043626696
  0.6666669999999968  0.3333330000000032  0.5894449043626698
  0.3333330000000032  0.6666669999999968  0.6704081558312633
  0.3333330000000032  0.6666669999999968  0.1704081558312634
 -0.0000000000000000 -0.0000000000000000  0.0037411558312594
 -0.0000000000000000 -0.0000000000000000  0.5037411558312594
  0.6666669999999968  0.3333330000000032  0.3370741558312626
  0.6666669999999968  0.3333330000000032  0.8370741558312627
  0.4566398209525627  0.4484745418341274  0.2516486466020213
  0.9918357208774027  0.5433601790566636  0.2516486466020213
  0.5515254581700396  0.0081642791092041  0.2516486466020213
  0.2181914581792651  0.8766941790566642  0.0849826466020218
  0.1233058209391686  0.3414982791092047  0.0849826466020218
  0.6585017208815689  0.7818085418341284  0.0849826466020218
  0.1233058209525620  0.7818085418341284  0.5849826466020216
  0.6585017208774020  0.8766941790566642  0.5849826466020216
  0.2181914581700387  0.3414982791092047  0.5849826466020216
  0.8848584581792617  0.2100271790566677  0.4183156466020252
  0.7899728209391657  0.6748312791092079  0.4183156466020252
  0.3251687208815654  0.1151415418341314  0.4183156466020252
  0.7899728209525588  0.1151415418341314  0.9183156466020248
  0.3251687208773986  0.2100271790566677  0.9183156466020248
  0.8848584581700357  0.6748312791092079  0.9183156466020248
  0.5515254581792656  0.5433601790566636  0.7516486466020209
  0.4566398209391692  0.0081642791092041  0.7516486466020209
  0.9918357208815696  0.4484745418341274  0.7516486466020209
 
  0.00000000E+00  0.00000000E+00  0.00000000E+00
  0.00000000E+00  0.00000000E+00  0.00000000E+00
  0.00000000E+00  0.00000000E+00  0.00000000E+00
  0.00000000E+00  0.00000000E+00  0.00000000E+00
  0.00000000E+00  0.00000000E+00  0.00000000E+00
  0.00000000E+00  0.00000000E+00  0.00000000E+00
  0.00000000E+00  0.00000000E+00  0.00000000E+00
  0.00000000E+00  0.00000000E+00  0.00000000E+00
  0.00000000E+00  0.00000000E+00  0.00000000E+00
  0.00000000E+00  0.00000000E+00  0.00000000E+00
  0.00000000E+00  0.00000000E+00  0.00000000E+00
  0.00000000E+00  0.00000000E+00  0.00000000E+00
  0.00000000E+00  0.00000000E+00  0.00000000E+00
  0.00000000E+00  0.00000000E+00  0.00000000E+00
  0.00000000E+00  0.00000000E+00  0.00000000E+00
  0.00000000E+00  0.00000000E+00  0.00000000E+00
  0.00000000E+00  0.00000000E+00  0.00000000E+00
  0.00000000E+00  0.00000000E+00  0.00000000E+00
  0.00000000E+00  0.00000000E+00  0.00000000E+00
  0.00000000E+00  0.00000000E+00  0.00000000E+00
  0.00000000E+00  0.00000000E+00  0.00000000E+00
  0.00000000E+00  0.00000000E+00  0.00000000E+00
  0.00000000E+00  0.00000000E+00  0.00000000E+00
  0.00000000E+00  0.00000000E+00  0.00000000E+00
  0.00000000E+00  0.00000000E+00  0.00000000E+00
  0.00000000E+00  0.00000000E+00  0.00000000E+00
  0.00000000E+00  0.00000000E+00  0.00000000E+00
  0.00000000E+00  0.00000000E+00  0.00000000E+00
  0.00000000E+00  0.00000000E+00  0.00000000E+00
  0.00000000E+00  0.00000000E+00  0.00000000E+00
