Mg6 Ti6 O18                             
   1.00000000000000     
     5.1034165126796331   -0.0000000004590835   -0.0000000000000000
    -2.5517082559422386    4.4196888980793698    0.0000000000000000
     0.0000000000000000    0.0000000000000000   14.0260787222951606
   Mg   Ti   O 
     6     6    18
Direct
  0.3333330000000032  0.6666669999999968  0.0214007446544273
  0.3333330000000032  0.6666669999999968  0.3119332553455735
 -0.0000000000000000  0.0000000000000000  0.3547337446544304
 -0.0000000000000000  0.0000000000000000  0.6452662553455695
  0.6666669999999968  0.3333330000000032  0.6880667446544266
  0.6666669999999968  0.3333330000000032  0.9785992553455727
 -0.0000000000000000  0.0000000000000000  0.1445946305995190
  0.6666669999999968  0.3333330000000032  0.1887383694004842
  0.6666669999999968  0.3333330000000032  0.4779276305995222
  0.3333330000000032  0.6666669999999968  0.5220723694004779
  0.3333330000000032  0.6666669999999968  0.8112616305995157
 -0.0000000000000000  0.0000000000000000  0.8554053694004811
  0.6865877919523310  0.6480922563783088  0.0864285532298778
  0.3519077436210264  0.0384945355736786  0.0864285532298778
  0.9615054644266402  0.3134122080480153  0.0864285532298778
  0.9800792080476658  0.6852407436216944  0.2469044467701253
  0.7051615355733637  0.0199207919519880  0.2469044467701253
  0.3147592563789704  0.2948384644263176  0.2469044467701253
  0.3532537919523373  0.9814262563783095  0.4197625532298785
  0.0185737436210257  0.3718285355736792  0.4197625532298785
  0.6281714644266395  0.6467462080480089  0.4197625532298785
  0.6467462080476626  0.0185737436216906  0.5802374467701215
  0.3718285355733605  0.3532537919519911  0.5802374467701215
  0.9814262563789743  0.6281714644263210  0.5802374467701215
  0.0199207919523342  0.3147592563783056  0.7530955532298746
  0.6852407436210296  0.7051615355736822  0.7530955532298746
  0.2948384644266363  0.9800792080480121  0.7530955532298746
  0.3134122080476691  0.3519077436216912  0.9135714467701221
  0.0384945355733599  0.6865877919519847  0.9135714467701221
  0.6480922563789736  0.9615054644263217  0.9135714467701221
 
  0.00000000E+00  0.00000000E+00  0.00000000E+00
  0.00000000E+00  0.00000000E+00  0.00000000E+00
  0.00000000E+00  0.00000000E+00  0.00000000E+00
  0.00000000E+00  0.00000000E+00  0.00000000E+00
  0.00000000E+00  0.00000000E+00  0.00000000E+00
  0.00000000E+00  0.00000000E+00  0.00000000E+00
  0.00000000E+00  0.00000000E+00  0.00000000E+00
  0.00000000E+00  0.00000000E+00  0.00000000E+00
  0.00000000E+00  0.00000000E+00  0.00000000E+00
  0.00000000E+00  0.00000000E+00  0.00000000E+00
  0.00000000E+00  0.00000000E+00  0.00000000E+00
  0.00000000E+00  0.00000000E+00  0.00000000E+00
  0.00000000E+00  0.00000000E+00  0.00000000E+00
  0.00000000E+00  0.00000000E+00  0.00000000E+00
  0.00000000E+00  0.00000000E+00  0.00000000E+00
  0.00000000E+00  0.00000000E+00  0.00000000E+00
  0.00000000E+00  0.00000000E+00  0.00000000E+00
  0.00000000E+00  0.00000000E+00  0.00000000E+00
  0.00000000E+00  0.00000000E+00  0.00000000E+00
  0.00000000E+00  0.00000000E+00  0.00000000E+00
  0.00000000E+00  0.00000000E+00  0.00000000E+00
  0.00000000E+00  0.00000000E+00  0.00000000E+00
  0.00000000E+00  0.00000000E+00  0.00000000E+00
  0.00000000E+00  0.00000000E+00  0.00000000E+00
  0.00000000E+00  0.00000000E+00  0.00000000E+00
  0.00000000E+00  0.00000000E+00  0.00000000E+00
  0.00000000E+00  0.00000000E+00  0.00000000E+00
  0.00000000E+00  0.00000000E+00  0.00000000E+00
  0.00000000E+00  0.00000000E+00  0.00000000E+00
  0.00000000E+00  0.00000000E+00  0.00000000E+00
