Cs4 Sr4 Br12                            
   1.00000000000000     
     4.6041244816187978    0.0000000000000000    0.0000000000000000
     0.0000000000000000   15.5550045453798891   -0.0000000000000000
     0.0000000000000000    0.0000000000000000   11.5371282059292550
   Cs   Sr   Br
     4     4    12
Direct
 -0.0000000000000000  0.2552386858269489  0.2500000000000000
  0.5000000000000000  0.2447613141730511  0.7500000000000000
  0.5000000000000000  0.7552386858269490  0.2500000000000000
 -0.0000000000000000  0.7447613141730510  0.7500000000000000
 -0.0000000000000000  0.0000000000000000  0.0000000000000000
  0.0000000000000000  0.0000000000000000  0.5000000000000000
  0.5000000000000000  0.5000000000000000  0.0000000000000000
  0.5000000000000000  0.5000000000000000  0.5000000000000000
 -0.0000000000000000  0.3711758291719275  0.9505445487740443
  0.5000000000000000  0.1288241708280725  0.4505445487740443
  0.0000000000000000  0.3711758291719275  0.5494554512259557
  0.5000000000000000  0.1288241708280725  0.0494554512259556
  0.5000000000000000  0.4362918858293763  0.2500000000000000
  0.0000000000000000  0.0637081141706238  0.7500000000000000
  0.5000000000000000  0.8711758291719275  0.9505445487740443
  0.0000000000000000  0.6288241708280725  0.4505445487740443
  0.5000000000000000  0.8711758291719275  0.5494554512259557
  0.0000000000000000  0.6288241708280725  0.0494554512259556
 -0.0000000000000000  0.9362918858293759  0.2500000000000000
  0.5000000000000000  0.5637081141706241  0.7500000000000000
 
  0.00000000E+00  0.00000000E+00  0.00000000E+00
  0.00000000E+00  0.00000000E+00  0.00000000E+00
  0.00000000E+00  0.00000000E+00  0.00000000E+00
  0.00000000E+00  0.00000000E+00  0.00000000E+00
  0.00000000E+00  0.00000000E+00  0.00000000E+00
  0.00000000E+00  0.00000000E+00  0.00000000E+00
  0.00000000E+00  0.00000000E+00  0.00000000E+00
  0.00000000E+00  0.00000000E+00  0.00000000E+00
  0.00000000E+00  0.00000000E+00  0.00000000E+00
  0.00000000E+00  0.00000000E+00  0.00000000E+00
  0.00000000E+00  0.00000000E+00  0.00000000E+00
  0.00000000E+00  0.00000000E+00  0.00000000E+00
  0.00000000E+00  0.00000000E+00  0.00000000E+00
  0.00000000E+00  0.00000000E+00  0.00000000E+00
  0.00000000E+00  0.00000000E+00  0.00000000E+00
  0.00000000E+00  0.00000000E+00  0.00000000E+00
  0.00000000E+00  0.00000000E+00  0.00000000E+00
  0.00000000E+00  0.00000000E+00  0.00000000E+00
  0.00000000E+00  0.00000000E+00  0.00000000E+00
  0.00000000E+00  0.00000000E+00  0.00000000E+00
