Na6 Cd6 F18                             
   1.00000000000000     
     5.7880875647244290   -0.0000000000000000   -0.0000000000000000
    -2.8940437823622145    5.0126310923774380    0.0000000000000000
    -0.0000000000000000   -0.0000000000000000   15.3139425723386111
   Na   Cd   F 
     6     6    18
Direct
 -0.0000000000000000  0.0000000000000000  0.2921914818793528
  0.6666669999999968  0.3333330000000032  0.1255244818793488
  0.6666669999999968  0.3333330000000032  0.6255244818793487
  0.3333330000000032  0.6666669999999968  0.4588584818793496
  0.3333330000000032  0.6666669999999968  0.9588584818793494
 -0.0000000000000000  0.0000000000000000  0.7921914818793526
 -0.0000000000000000  0.0000000000000000  0.0020076235057560
  0.3333330000000032  0.6666669999999968  0.1686746235057598
  0.6666669999999968  0.3333330000000032  0.3353406235057592
 -0.0000000000000000  0.0000000000000000  0.5020076235057561
  0.3333330000000032  0.6666669999999968  0.6686746235057600
  0.6666669999999968  0.3333330000000032  0.8353406235057593
  0.0406183129072861  0.6761274322984535  0.0672666315382963
  0.3238725677004684  0.3644908806086984  0.0672666315382963
  0.6355091193922456  0.9593816870928480  0.0672666315382963
  0.9688421193911636  0.3427944322984504  0.2339336315382931
  0.3739513129082333  0.0311578806087023  0.2339336315382931
  0.6572055677006055  0.6260486870928448  0.2339336315382931
  0.7072853129072899  0.0094604322984496  0.4005996315382996
  0.9905395677004721  0.6978238806087017  0.4005996315382996
  0.3021761193922423  0.2927146870928440  0.4005996315382996
  0.6355091193911675  0.6761274322984535  0.5672666315382964
  0.0406183129082301  0.3644908806086984  0.5672666315382964
  0.3238725677006025  0.9593816870928480  0.5672666315382964
  0.3739513129072893  0.3427944322984504  0.7339336315382932
  0.6572055677004714  0.0311578806087023  0.7339336315382932
  0.9688421193922417  0.6260486870928448  0.7339336315382932
  0.3021761193911642  0.0094604322984496  0.9005996315382996
  0.7072853129082339  0.6978238806087017  0.9005996315382996
  0.9905395677006061  0.2927146870928440  0.9005996315382996
 
  0.00000000E+00  0.00000000E+00  0.00000000E+00
  0.00000000E+00  0.00000000E+00  0.00000000E+00
  0.00000000E+00  0.00000000E+00  0.00000000E+00
  0.00000000E+00  0.00000000E+00  0.00000000E+00
  0.00000000E+00  0.00000000E+00  0.00000000E+00
  0.00000000E+00  0.00000000E+00  0.00000000E+00
  0.00000000E+00  0.00000000E+00  0.00000000E+00
  0.00000000E+00  0.00000000E+00  0.00000000E+00
  0.00000000E+00  0.00000000E+00  0.00000000E+00
  0.00000000E+00  0.00000000E+00  0.00000000E+00
  0.00000000E+00  0.00000000E+00  0.00000000E+00
  0.00000000E+00  0.00000000E+00  0.00000000E+00
  0.00000000E+00  0.00000000E+00  0.00000000E+00
  0.00000000E+00  0.00000000E+00  0.00000000E+00
  0.00000000E+00  0.00000000E+00  0.00000000E+00
  0.00000000E+00  0.00000000E+00  0.00000000E+00
  0.00000000E+00  0.00000000E+00  0.00000000E+00
  0.00000000E+00  0.00000000E+00  0.00000000E+00
  0.00000000E+00  0.00000000E+00  0.00000000E+00
  0.00000000E+00  0.00000000E+00  0.00000000E+00
  0.00000000E+00  0.00000000E+00  0.00000000E+00
  0.00000000E+00  0.00000000E+00  0.00000000E+00
  0.00000000E+00  0.00000000E+00  0.00000000E+00
  0.00000000E+00  0.00000000E+00  0.00000000E+00
  0.00000000E+00  0.00000000E+00  0.00000000E+00
  0.00000000E+00  0.00000000E+00  0.00000000E+00
  0.00000000E+00  0.00000000E+00  0.00000000E+00
  0.00000000E+00  0.00000000E+00  0.00000000E+00
  0.00000000E+00  0.00000000E+00  0.00000000E+00
  0.00000000E+00  0.00000000E+00  0.00000000E+00
