Mg4 Si4 O12                             
   1.00000000000000     
     2.7132791396547251    0.0000000000000000    0.0000000000000000
     0.0000000000000000    9.1961609824509818    0.0000000000000000
     0.0000000000000000   -0.0000000000000000    6.7222593883657424
   Mg   Si   O 
     4     4    12
Direct
 -0.0000000000000000  0.2608807397016946  0.2500000000000000
  0.5000000000000000  0.2391192602983054  0.7500000000000000
  0.5000000000000000  0.7608807397016946  0.2500000000000000
 -0.0000000000000000  0.7391192602983054  0.7500000000000000
 -0.0000000000000000  0.0000000000000000  0.5000000000000000
  0.0000000000000000  0.0000000000000000 -0.0000000000000000
  0.5000000000000000  0.5000000000000000  0.5000000000000000
  0.5000000000000000  0.5000000000000000 -0.0000000000000000
  0.5000000000000000  0.1262509045876124  0.4446043005967298
 -0.0000000000000000  0.3737490954123875  0.5553956994032703
 -0.0000000000000000  0.3737490954123875  0.9446043005967297
  0.5000000000000000  0.1262509045876124  0.0553956994032703
  0.5000000000000000  0.4269340159200629  0.2500000000000000
 -0.0000000000000000  0.0730659840799370  0.7500000000000000
  0.0000000000000000  0.6262509045876125  0.4446043005967298
  0.5000000000000000  0.8737490954123875  0.5553956994032703
  0.5000000000000000  0.8737490954123875  0.9446043005967297
  0.0000000000000000  0.6262509045876125  0.0553956994032703
 -0.0000000000000000  0.9269340159200630  0.2500000000000000
  0.5000000000000000  0.5730659840799370  0.7500000000000000
 
  0.00000000E+00  0.00000000E+00  0.00000000E+00
  0.00000000E+00  0.00000000E+00  0.00000000E+00
  0.00000000E+00  0.00000000E+00  0.00000000E+00
  0.00000000E+00  0.00000000E+00  0.00000000E+00
  0.00000000E+00  0.00000000E+00  0.00000000E+00
  0.00000000E+00  0.00000000E+00  0.00000000E+00
  0.00000000E+00  0.00000000E+00  0.00000000E+00
  0.00000000E+00  0.00000000E+00  0.00000000E+00
  0.00000000E+00  0.00000000E+00  0.00000000E+00
  0.00000000E+00  0.00000000E+00  0.00000000E+00
  0.00000000E+00  0.00000000E+00  0.00000000E+00
  0.00000000E+00  0.00000000E+00  0.00000000E+00
  0.00000000E+00  0.00000000E+00  0.00000000E+00
  0.00000000E+00  0.00000000E+00  0.00000000E+00
  0.00000000E+00  0.00000000E+00  0.00000000E+00
  0.00000000E+00  0.00000000E+00  0.00000000E+00
  0.00000000E+00  0.00000000E+00  0.00000000E+00
  0.00000000E+00  0.00000000E+00  0.00000000E+00
  0.00000000E+00  0.00000000E+00  0.00000000E+00
  0.00000000E+00  0.00000000E+00  0.00000000E+00
