Na6 Bi6 O18                             
   1.00000000000000     
     5.6698814440702510   -0.0000000012610027   -0.0000000000000000
    -2.8349407209430653    4.9102611784954044   -0.0000000000000000
     0.0000000000000000   -0.0000000000000000   16.1310090972744824
   Na   Bi   O 
     6     6    18
Direct
  0.6666669999999968  0.3333330000000032  0.1956539407232704
 -0.0000000000000000 -0.0000000000000000  0.1376790592767329
  0.3333330000000032  0.6666669999999968  0.5289879407232712
  0.6666669999999968  0.3333330000000032  0.4710120592767288
 -0.0000000000000000 -0.0000000000000000  0.8623209407232673
  0.3333330000000032  0.6666669999999968  0.8043460592767295
  0.3333330000000032  0.6666669999999968  0.3235927419459609
  0.3333330000000032  0.6666669999999968  0.0097412580540397
 -0.0000000000000000 -0.0000000000000000  0.6569257419459569
 -0.0000000000000000 -0.0000000000000000  0.3430742580540359
  0.6666669999999968  0.3333330000000032  0.9902587419459601
  0.6666669999999968  0.3333330000000032  0.6764072580540392
  0.6842803304157056  0.7196705286618553  0.2579881084463919
  0.0353911982461355  0.3157196695844034  0.2579881084463919
  0.2803294713381635  0.9646088017537369  0.2579881084463919
  0.9823866695842983  0.6136624713381479  0.0753448915536042
  0.3863375286618333  0.3687241982462593  0.0753448915536042
  0.6312758017538681  0.0176133304155927  0.0753448915536042
  0.3509463304157049  0.0530045286618559  0.5913221084463925
  0.7020571982461351  0.6490536695844039  0.5913221084463925
  0.9469954713381625  0.2979428017537375  0.5913221084463925
  0.6490536695842951  0.9469954713381440  0.4086778915536074
  0.0530045286618372  0.7020571982462624  0.4086778915536074
  0.2979428017538652  0.3509463304155959  0.4086778915536074
  0.0176133304157017  0.3863375286618521  0.9246551084463958
  0.3687241982461316  0.9823866695844071  0.9246551084463958
  0.6136624713381664  0.6312758017537408  0.9246551084463958
  0.3157196695842944  0.2803294713381447  0.7420118915536081
  0.7196705286618368  0.0353911982462632  0.7420118915536081
  0.9646088017538642  0.6842803304155968  0.7420118915536081
 
  0.00000000E+00  0.00000000E+00  0.00000000E+00
  0.00000000E+00  0.00000000E+00  0.00000000E+00
  0.00000000E+00  0.00000000E+00  0.00000000E+00
  0.00000000E+00  0.00000000E+00  0.00000000E+00
  0.00000000E+00  0.00000000E+00  0.00000000E+00
  0.00000000E+00  0.00000000E+00  0.00000000E+00
  0.00000000E+00  0.00000000E+00  0.00000000E+00
  0.00000000E+00  0.00000000E+00  0.00000000E+00
  0.00000000E+00  0.00000000E+00  0.00000000E+00
  0.00000000E+00  0.00000000E+00  0.00000000E+00
  0.00000000E+00  0.00000000E+00  0.00000000E+00
  0.00000000E+00  0.00000000E+00  0.00000000E+00
  0.00000000E+00  0.00000000E+00  0.00000000E+00
  0.00000000E+00  0.00000000E+00  0.00000000E+00
  0.00000000E+00  0.00000000E+00  0.00000000E+00
  0.00000000E+00  0.00000000E+00  0.00000000E+00
  0.00000000E+00  0.00000000E+00  0.00000000E+00
  0.00000000E+00  0.00000000E+00  0.00000000E+00
  0.00000000E+00  0.00000000E+00  0.00000000E+00
  0.00000000E+00  0.00000000E+00  0.00000000E+00
  0.00000000E+00  0.00000000E+00  0.00000000E+00
  0.00000000E+00  0.00000000E+00  0.00000000E+00
  0.00000000E+00  0.00000000E+00  0.00000000E+00
  0.00000000E+00  0.00000000E+00  0.00000000E+00
  0.00000000E+00  0.00000000E+00  0.00000000E+00
  0.00000000E+00  0.00000000E+00  0.00000000E+00
  0.00000000E+00  0.00000000E+00  0.00000000E+00
  0.00000000E+00  0.00000000E+00  0.00000000E+00
  0.00000000E+00  0.00000000E+00  0.00000000E+00
  0.00000000E+00  0.00000000E+00  0.00000000E+00
