Ca4 W4 N12                              
   1.00000000000000     
    13.9606578286761067    0.0000000000000000   -4.0515837393824503
     0.0000000000000000    3.6443195976218714    0.0000000000000000
     0.0017944660238534    0.0000000000000000    5.8309674010082633
   Ca   W    N 
     4     4    12
Direct
  0.4083216971060963  0.0000000000000000  0.7055270561644654
  0.0916783028939036  0.5000000000000000  0.2944729438355347
  0.9083216971060964  0.5000000000000000  0.7055270561644654
  0.5916783028939036 -0.0000000000000000  0.2944729438355347
  0.3429787565659219  0.5000000000000000  0.1247103992358448
  0.1570212434340782  0.0000000000000000  0.8752896007641552
  0.8429787565659218  0.0000000000000000  0.1247103992358448
  0.6570212434340782  0.5000000000000000  0.8752896007641552
  0.3700778413491372  0.5000000000000000  0.4447913226894562
  0.1299221586508629  0.0000000000000000  0.5552086773105439
  0.0342731757360508  0.0000000000000000  0.9451608024036154
  0.1920629784449424  0.5000000000000000  0.0221832470867166
  0.4657268242639492  0.5000000000000000  0.0548391975963846
  0.3079370215550576  0.0000000000000000  0.9778167529132834
  0.8700778413491371 -0.0000000000000000  0.4447913226894562
  0.6299221586508629  0.5000000000000000  0.5552086773105439
  0.5342731757360508  0.5000000000000000  0.9451608024036154
  0.6920629784449424  0.0000000000000000  0.0221832470867166
  0.9657268242639492 -0.0000000000000000  0.0548391975963846
  0.8079370215550576  0.5000000000000000  0.9778167529132834
 
  0.00000000E+00  0.00000000E+00  0.00000000E+00
  0.00000000E+00  0.00000000E+00  0.00000000E+00
  0.00000000E+00  0.00000000E+00  0.00000000E+00
  0.00000000E+00  0.00000000E+00  0.00000000E+00
  0.00000000E+00  0.00000000E+00  0.00000000E+00
  0.00000000E+00  0.00000000E+00  0.00000000E+00
  0.00000000E+00  0.00000000E+00  0.00000000E+00
  0.00000000E+00  0.00000000E+00  0.00000000E+00
  0.00000000E+00  0.00000000E+00  0.00000000E+00
  0.00000000E+00  0.00000000E+00  0.00000000E+00
  0.00000000E+00  0.00000000E+00  0.00000000E+00
  0.00000000E+00  0.00000000E+00  0.00000000E+00
  0.00000000E+00  0.00000000E+00  0.00000000E+00
  0.00000000E+00  0.00000000E+00  0.00000000E+00
  0.00000000E+00  0.00000000E+00  0.00000000E+00
  0.00000000E+00  0.00000000E+00  0.00000000E+00
  0.00000000E+00  0.00000000E+00  0.00000000E+00
  0.00000000E+00  0.00000000E+00  0.00000000E+00
  0.00000000E+00  0.00000000E+00  0.00000000E+00
  0.00000000E+00  0.00000000E+00  0.00000000E+00
