Cs1 Ca1 H3                              
   1.00000000000000     
     4.6265278056883679   -0.0000000000000000   -0.0000000000000000
     0.0000000000000000    4.6265278056883679    0.0000000000000000
     0.0000000000000000    0.0000000000000000    4.6265278056883679
   Cs   Ca   H 
     1     1     3
Direct
 -0.0000000000000000 -0.0000000000000000 -0.0000000000000000
  0.5000000000000000  0.5000000000000000  0.5000000000000000
  0.5000000000000000  0.0000000000000000  0.5000000000000000
  0.0000000000000000  0.5000000000000000  0.5000000000000000
  0.5000000000000000  0.5000000000000000  0.0000000000000000
 
  0.00000000E+00  0.00000000E+00  0.00000000E+00
  0.00000000E+00  0.00000000E+00  0.00000000E+00
  0.00000000E+00  0.00000000E+00  0.00000000E+00
  0.00000000E+00  0.00000000E+00  0.00000000E+00
  0.00000000E+00  0.00000000E+00  0.00000000E+00
