La4 Cr4 O12                             
   1.00000000000000     
     5.5327766629006128   -0.0000000000000000    0.0000000000000000
     0.0000000000000000    5.5661624396737128    0.0000000000000000
     0.0000000000000000    0.0000000000000000    7.8302536203636430
   La   Cr   O 
     4     4    12
Direct
  0.5074762986187693  0.4628569647463135  0.2500000000000000
  0.9925237013812307  0.9628559647463160  0.2500000000000000
  0.0074762986187692  0.0371440352536840  0.7500000000000000
  0.4925237013812307  0.5371440352536840  0.7500000000000000
  0.5000000000000000  0.0000000000000000 -0.0000000000000000
 -0.0000000000000000  0.5000000000000000  0.5000000000000000
 -0.0000000000000000  0.5000000000000000 -0.0000000000000000
  0.5000000000000000  0.0000000000000000  0.5000000000000000
  0.5765637200583411  0.9839908261352323  0.7500000000000000
  0.9234362799416589  0.4839908261352323  0.7500000000000000
  0.0765637200583411  0.5160091738647677  0.2500000000000000
  0.4234362799416589  0.0160091738647677  0.2500000000000000
  0.2130164577195165  0.7869060937236577  0.9590127837670259
  0.2869835422804835  0.2869070937236551  0.5409872162329741
  0.7130164577195165  0.7130939062763423  0.0409872162329740
  0.7869835422804835  0.2130929062763448  0.4590127837670260
  0.7869835422804835  0.2130929062763448  0.0409872162329740
  0.7130164577195165  0.7130939062763423  0.4590127837670260
  0.2869835422804835  0.2869070937236551  0.9590127837670259
  0.2130164577195165  0.7869060937236577  0.5409872162329741
 
  0.00000000E+00  0.00000000E+00  0.00000000E+00
  0.00000000E+00  0.00000000E+00  0.00000000E+00
  0.00000000E+00  0.00000000E+00  0.00000000E+00
  0.00000000E+00  0.00000000E+00  0.00000000E+00
  0.00000000E+00  0.00000000E+00  0.00000000E+00
  0.00000000E+00  0.00000000E+00  0.00000000E+00
  0.00000000E+00  0.00000000E+00  0.00000000E+00
  0.00000000E+00  0.00000000E+00  0.00000000E+00
  0.00000000E+00  0.00000000E+00  0.00000000E+00
  0.00000000E+00  0.00000000E+00  0.00000000E+00
  0.00000000E+00  0.00000000E+00  0.00000000E+00
  0.00000000E+00  0.00000000E+00  0.00000000E+00
  0.00000000E+00  0.00000000E+00  0.00000000E+00
  0.00000000E+00  0.00000000E+00  0.00000000E+00
  0.00000000E+00  0.00000000E+00  0.00000000E+00
  0.00000000E+00  0.00000000E+00  0.00000000E+00
  0.00000000E+00  0.00000000E+00  0.00000000E+00
  0.00000000E+00  0.00000000E+00  0.00000000E+00
  0.00000000E+00  0.00000000E+00  0.00000000E+00
  0.00000000E+00  0.00000000E+00  0.00000000E+00
