Ti6 Cd6 O18                             
   1.00000000000000     
     5.3094151187979008    0.0000000001586102    0.0000000000000000
    -2.6547075595363103    4.5980885145258545   -0.0000000000000000
     0.0000000000000000   -0.0000000000000000   15.1067464563917024
   Ti   Cd   O 
     6     6    18
Direct
  0.6666669999999968  0.3333330000000032  0.1829541813977050
  0.0000000000000000  0.0000000000000000  0.1503788186022982
  0.3333330000000032  0.6666669999999968  0.5162881813977056
  0.6666669999999968  0.3333330000000032  0.4837118186022943
  0.0000000000000000  0.0000000000000000  0.8496211813977017
  0.3333330000000032  0.6666669999999968  0.8170458186022951
  0.3333330000000032  0.6666669999999968  0.3030650647275794
  0.3333330000000032  0.6666669999999968  0.0302689352724213
  0.0000000000000000  0.0000000000000000  0.6363980647275823
  0.0000000000000000  0.0000000000000000  0.3636019352724174
  0.6666669999999968  0.3333330000000032  0.9697310647275784
  0.6666669999999968  0.3333330000000032  0.6969349352724209
  0.7116497801829466  0.6546347107357723  0.0929490396814324
  0.3453652892641070  0.0570160694471251  0.0929490396814324
  0.9429839305529489  0.2883502198171000  0.0929490396814324
  0.9550162198170528  0.6786992892642284  0.2403849603185612
  0.7236820694470575  0.0449837801829006  0.2403849603185612
  0.3213007107358923  0.2763179305528685  0.2403849603185612
  0.3783167801829433  0.9879677107357684  0.4262820396814356
  0.0120322892641108  0.3903490694471283  0.4262820396814356
  0.6096509305529457  0.6216832198171033  0.4262820396814356
  0.6216832198170567  0.0120322892642316  0.5737179603185645
  0.3903490694470541  0.3783167801828968  0.5737179603185645
  0.9879677107358893  0.6096509305528718  0.5737179603185645
  0.0449837801829472  0.3213007107357715  0.7596150396814387
  0.6786992892641075  0.7236820694471314  0.7596150396814387
  0.2763179305529427  0.9550162198170994  0.7596150396814387
  0.2883502198170535  0.3453652892642278  0.9070509603185677
  0.0570160694470509  0.7116497801828999  0.9070509603185677
  0.6546347107358932  0.9429839305528750  0.9070509603185677
 
  0.00000000E+00  0.00000000E+00  0.00000000E+00
  0.00000000E+00  0.00000000E+00  0.00000000E+00
  0.00000000E+00  0.00000000E+00  0.00000000E+00
  0.00000000E+00  0.00000000E+00  0.00000000E+00
  0.00000000E+00  0.00000000E+00  0.00000000E+00
  0.00000000E+00  0.00000000E+00  0.00000000E+00
  0.00000000E+00  0.00000000E+00  0.00000000E+00
  0.00000000E+00  0.00000000E+00  0.00000000E+00
  0.00000000E+00  0.00000000E+00  0.00000000E+00
  0.00000000E+00  0.00000000E+00  0.00000000E+00
  0.00000000E+00  0.00000000E+00  0.00000000E+00
  0.00000000E+00  0.00000000E+00  0.00000000E+00
  0.00000000E+00  0.00000000E+00  0.00000000E+00
  0.00000000E+00  0.00000000E+00  0.00000000E+00
  0.00000000E+00  0.00000000E+00  0.00000000E+00
  0.00000000E+00  0.00000000E+00  0.00000000E+00
  0.00000000E+00  0.00000000E+00  0.00000000E+00
  0.00000000E+00  0.00000000E+00  0.00000000E+00
  0.00000000E+00  0.00000000E+00  0.00000000E+00
  0.00000000E+00  0.00000000E+00  0.00000000E+00
  0.00000000E+00  0.00000000E+00  0.00000000E+00
  0.00000000E+00  0.00000000E+00  0.00000000E+00
  0.00000000E+00  0.00000000E+00  0.00000000E+00
  0.00000000E+00  0.00000000E+00  0.00000000E+00
  0.00000000E+00  0.00000000E+00  0.00000000E+00
  0.00000000E+00  0.00000000E+00  0.00000000E+00
  0.00000000E+00  0.00000000E+00  0.00000000E+00
  0.00000000E+00  0.00000000E+00  0.00000000E+00
  0.00000000E+00  0.00000000E+00  0.00000000E+00
  0.00000000E+00  0.00000000E+00  0.00000000E+00
