Na4 Co4 F12                             
   1.00000000000000     
     3.0839088117354918    0.0000000000000000    0.0000000000000000
     0.0000000000000000   10.1857675902924605   -0.0000000000000000
     0.0000000000000000   -0.0000000000000000    7.4514248640889180
   Na   Co   F 
     4     4    12
Direct
 -0.0000000000000000  0.2521724476447111  0.7500000000000000
  0.5000000000000000  0.2478275523552891  0.2500000000000000
  0.5000000000000000  0.7521724476447108  0.7500000000000000
 -0.0000000000000000  0.7478275523552892  0.2500000000000000
  0.0000000000000000 -0.0000000000000000  0.0000000000000000
 -0.0000000000000000 -0.0000000000000000  0.5000000000000000
  0.5000000000000000  0.5000000000000000  0.0000000000000000
  0.5000000000000000  0.5000000000000000  0.5000000000000000
  0.5000000000000000  0.4194062532954475  0.7500000000000000
  0.0000000000000000  0.0805937467045523  0.2500000000000000
  0.5000000000000000  0.1300579652171820  0.9397037857763437
  0.0000000000000000  0.3699420347828182  0.0602962142236560
  0.5000000000000000  0.1300579652171820  0.5602962142236563
 -0.0000000000000000  0.3699420347828182  0.4397037857763440
  0.0000000000000000  0.9194062532954479  0.7500000000000000
  0.5000000000000000  0.5805937467045521  0.2500000000000000
  0.0000000000000000  0.6300579652171818  0.9397037857763437
  0.5000000000000000  0.8699420347828182  0.0602962142236560
 -0.0000000000000000  0.6300579652171818  0.5602962142236563
  0.5000000000000000  0.8699420347828182  0.4397037857763440
 
  0.00000000E+00  0.00000000E+00  0.00000000E+00
  0.00000000E+00  0.00000000E+00  0.00000000E+00
  0.00000000E+00  0.00000000E+00  0.00000000E+00
  0.00000000E+00  0.00000000E+00  0.00000000E+00
  0.00000000E+00  0.00000000E+00  0.00000000E+00
  0.00000000E+00  0.00000000E+00  0.00000000E+00
  0.00000000E+00  0.00000000E+00  0.00000000E+00
  0.00000000E+00  0.00000000E+00  0.00000000E+00
  0.00000000E+00  0.00000000E+00  0.00000000E+00
  0.00000000E+00  0.00000000E+00  0.00000000E+00
  0.00000000E+00  0.00000000E+00  0.00000000E+00
  0.00000000E+00  0.00000000E+00  0.00000000E+00
  0.00000000E+00  0.00000000E+00  0.00000000E+00
  0.00000000E+00  0.00000000E+00  0.00000000E+00
  0.00000000E+00  0.00000000E+00  0.00000000E+00
  0.00000000E+00  0.00000000E+00  0.00000000E+00
  0.00000000E+00  0.00000000E+00  0.00000000E+00
  0.00000000E+00  0.00000000E+00  0.00000000E+00
  0.00000000E+00  0.00000000E+00  0.00000000E+00
  0.00000000E+00  0.00000000E+00  0.00000000E+00
