La4 Sc4 O12                             
   1.00000000000000     
     5.6857736588095049    0.0000000000000000    0.0000000000000000
    -0.0000000000000000    5.8229048354304274    0.0000000000000000
     0.0000000000000000    0.0000000000000000    8.1205362421486313
   La   Sc   O 
     4     4    12
Direct
  0.9881120349846036  0.0460340084041014  0.7500000000000000
  0.4881120349846039  0.4539659915958986  0.2500000000000000
  0.5118879650153964  0.5460340084041013  0.7500000000000000
  0.0118879650153961  0.9539659915958987  0.2500000000000000
  0.0000000000000000  0.5000000000000000  0.5000000000000000
  0.5000000000000000 -0.0000000000000000  0.5000000000000000
  0.5000000000000000 -0.0000000000000000  0.0000000000000000
  0.0000000000000000  0.5000000000000000  0.0000000000000000
  0.7041759823072452  0.2959742987069267  0.5535848481759353
  0.2041759823072451  0.2040257012930732  0.4464151518240647
  0.7958240176927548  0.7959742987069268  0.9464151518240647
  0.2958240176927548  0.7040257012930732  0.0535848481759353
  0.2958240176927548  0.7040257012930732  0.4464151518240647
  0.7958240176927548  0.7959742987069268  0.5535848481759353
  0.2041759823072451  0.2040257012930732  0.0535848481759353
  0.7041759823072452  0.2959742987069267  0.9464151518240647
  0.8994326985918173  0.5344570441122486  0.2500000000000000
  0.3994326985918174  0.9655429558877514  0.7500000000000000
  0.6005673014081827  0.0344570441122486  0.2500000000000000
  0.1005673014081827  0.4655429558877514  0.7500000000000000
 
  0.00000000E+00  0.00000000E+00  0.00000000E+00
  0.00000000E+00  0.00000000E+00  0.00000000E+00
  0.00000000E+00  0.00000000E+00  0.00000000E+00
  0.00000000E+00  0.00000000E+00  0.00000000E+00
  0.00000000E+00  0.00000000E+00  0.00000000E+00
  0.00000000E+00  0.00000000E+00  0.00000000E+00
  0.00000000E+00  0.00000000E+00  0.00000000E+00
  0.00000000E+00  0.00000000E+00  0.00000000E+00
  0.00000000E+00  0.00000000E+00  0.00000000E+00
  0.00000000E+00  0.00000000E+00  0.00000000E+00
  0.00000000E+00  0.00000000E+00  0.00000000E+00
  0.00000000E+00  0.00000000E+00  0.00000000E+00
  0.00000000E+00  0.00000000E+00  0.00000000E+00
  0.00000000E+00  0.00000000E+00  0.00000000E+00
  0.00000000E+00  0.00000000E+00  0.00000000E+00
  0.00000000E+00  0.00000000E+00  0.00000000E+00
  0.00000000E+00  0.00000000E+00  0.00000000E+00
  0.00000000E+00  0.00000000E+00  0.00000000E+00
  0.00000000E+00  0.00000000E+00  0.00000000E+00
  0.00000000E+00  0.00000000E+00  0.00000000E+00
