Ca4 Tc4 N12                             
   1.00000000000000     
    11.8781548301796995    0.0000000000000000   -3.3379008550547233
     0.0000000000000000    3.6488804175364487    0.0000000000000000
     0.0026273635569760    0.0000000000000000    6.4594871957770144
   Ca   Tc   N 
     4     4    12
Direct
  0.1211190848353424  0.5000000000000000  0.3282514539142629
  0.3788809151646577  0.0000000000000000  0.6717485460857371
  0.6211190848353424 -0.0000000000000000  0.3282514539142629
  0.8788809151646576  0.5000000000000000  0.6717485460857371
  0.3449888634188139  0.5000000000000000  0.1502764242791471
  0.1550111365811862 -0.0000000000000000  0.8497235757208528
  0.8449888634188140  0.0000000000000000  0.1502764242791471
  0.6550111365811860  0.5000000000000000  0.8497235757208528
  0.3432695667202106  0.5000000000000000  0.4202881260248779
  0.3196734786536297 -0.0000000000000000  0.0080552723709261
  0.0027903496511569  0.0000000000000000  0.9020936070108785
  0.1567304332797894 -0.0000000000000000  0.5797118739751222
  0.4972096503488431  0.5000000000000000  0.0979063929891216
  0.1803265213463704  0.5000000000000000  0.9919447276290738
  0.8432695667202106 -0.0000000000000000  0.4202881260248779
  0.8196734786536295  0.5000000000000000  0.0080552723709261
  0.5027903496511570  0.5000000000000000  0.9020936070108785
  0.6567304332797894  0.5000000000000000  0.5797118739751222
  0.9972096503488430 -0.0000000000000000  0.0979063929891216
  0.6803265213463705 -0.0000000000000000  0.9919447276290738
 
  0.00000000E+00  0.00000000E+00  0.00000000E+00
  0.00000000E+00  0.00000000E+00  0.00000000E+00
  0.00000000E+00  0.00000000E+00  0.00000000E+00
  0.00000000E+00  0.00000000E+00  0.00000000E+00
  0.00000000E+00  0.00000000E+00  0.00000000E+00
  0.00000000E+00  0.00000000E+00  0.00000000E+00
  0.00000000E+00  0.00000000E+00  0.00000000E+00
  0.00000000E+00  0.00000000E+00  0.00000000E+00
  0.00000000E+00  0.00000000E+00  0.00000000E+00
  0.00000000E+00  0.00000000E+00  0.00000000E+00
  0.00000000E+00  0.00000000E+00  0.00000000E+00
  0.00000000E+00  0.00000000E+00  0.00000000E+00
  0.00000000E+00  0.00000000E+00  0.00000000E+00
  0.00000000E+00  0.00000000E+00  0.00000000E+00
  0.00000000E+00  0.00000000E+00  0.00000000E+00
  0.00000000E+00  0.00000000E+00  0.00000000E+00
  0.00000000E+00  0.00000000E+00  0.00000000E+00
  0.00000000E+00  0.00000000E+00  0.00000000E+00
  0.00000000E+00  0.00000000E+00  0.00000000E+00
  0.00000000E+00  0.00000000E+00  0.00000000E+00
