Cs4 Au4 Br12                            
   1.00000000000000     
     7.9352995720705470    0.0000000000000000    0.0000000000000000
    -0.0000000000000000    7.9352995720705470    0.0000000000000000
     0.0000000000000000    0.0000000000000000   11.7923312406098137
   Cs   Au   Br
     4     4    12
Direct
  0.5000000000000000 -0.0000000000000000  0.2500000000000000
  0.0000000000000000  0.5000000000000000  0.2500000000000000
  0.0000000000000000  0.5000000000000000  0.7500000000000000
  0.5000000000000000 -0.0000000000000000  0.7500000000000000
  0.0000000000000000 -0.0000000000000000  0.0000000000000000
  0.5000000000000000  0.5000000000000000  0.0000000000000000
  0.5000000000000000  0.5000000000000000  0.5000000000000000
  0.0000000000000000 -0.0000000000000000  0.5000000000000000
  0.0000000000000000 -0.0000000000000000  0.2923208468360969
  0.7766819663313496  0.2233180336686505  0.0000000000000000
  0.5000000000000000  0.5000000000000000  0.2076791531639032
  0.7233180336686504  0.7233180336686504  0.5000000000000000
  0.2233180336686505  0.7766819663313496  0.0000000000000000
  0.7766819663313496  0.7766819663313496  0.0000000000000000
  0.5000000000000000  0.5000000000000000  0.7923208468360967
  0.2766819663313495  0.7233180336686504  0.5000000000000000
  0.0000000000000000 -0.0000000000000000  0.7076791531639033
  0.2233180336686505  0.2233180336686505  0.0000000000000000
  0.7233180336686504  0.2766819663313495  0.5000000000000000
  0.2766819663313495  0.2766819663313495  0.5000000000000000
 
  0.00000000E+00  0.00000000E+00  0.00000000E+00
  0.00000000E+00  0.00000000E+00  0.00000000E+00
  0.00000000E+00  0.00000000E+00  0.00000000E+00
  0.00000000E+00  0.00000000E+00  0.00000000E+00
  0.00000000E+00  0.00000000E+00  0.00000000E+00
  0.00000000E+00  0.00000000E+00  0.00000000E+00
  0.00000000E+00  0.00000000E+00  0.00000000E+00
  0.00000000E+00  0.00000000E+00  0.00000000E+00
  0.00000000E+00  0.00000000E+00  0.00000000E+00
  0.00000000E+00  0.00000000E+00  0.00000000E+00
  0.00000000E+00  0.00000000E+00  0.00000000E+00
  0.00000000E+00  0.00000000E+00  0.00000000E+00
  0.00000000E+00  0.00000000E+00  0.00000000E+00
  0.00000000E+00  0.00000000E+00  0.00000000E+00
  0.00000000E+00  0.00000000E+00  0.00000000E+00
  0.00000000E+00  0.00000000E+00  0.00000000E+00
  0.00000000E+00  0.00000000E+00  0.00000000E+00
  0.00000000E+00  0.00000000E+00  0.00000000E+00
  0.00000000E+00  0.00000000E+00  0.00000000E+00
  0.00000000E+00  0.00000000E+00  0.00000000E+00
