Ca6 C6 O18
1.0
5.051314 0.000000 0.000000
-2.525657 4.374566 0.000000
0.000000 0.000000 17.303872
Ca C O
6 6 18
direct
0.333333 0.666667 0.166667 Ca
0.000000 0.000000 0.000000 Ca
0.000000 0.000000 0.500000 Ca
0.666667 0.333333 0.333333 Ca
0.666667 0.333333 0.833333 Ca
0.333333 0.666667 0.666667 Ca
0.000000 0.000000 0.250000 C
0.666667 0.333333 0.083333 C
0.666667 0.333333 0.583333 C
0.333333 0.666667 0.416667 C
0.333333 0.666667 0.916667 C
0.000000 0.000000 0.750000 C
0.742743 0.000000 0.250000 O
0.000000 0.742743 0.250000 O
0.257257 0.257257 0.250000 O
0.666667 0.590590 0.083333 O
0.409410 0.076076 0.083333 O
0.923924 0.333333 0.083333 O
0.409410 0.333333 0.583333 O
0.666667 0.076076 0.583333 O
0.923924 0.590590 0.583333 O
0.333333 0.923924 0.416667 O
0.076076 0.409410 0.416667 O
0.590590 0.666667 0.416667 O
0.076076 0.666667 0.916667 O
0.333333 0.409410 0.916667 O
0.590590 0.923924 0.916667 O
0.000000 0.257257 0.750000 O
0.742743 0.742743 0.750000 O
0.257257 0.000000 0.750000 O
