Ca6 Sn6 O18                             
   1.00000000000000     
     5.5647281898849750    0.0000000044730144    0.0000000000000000
    -2.7823640988162319    4.8191964198834674   -0.0000000000000000
     0.0000000000000000    0.0000000000000000   15.4942757493992023
   Ca   Sn   O 
     6     6    18
Direct
  0.3333330000000032  0.6666669999999968  0.3039084331811762
  0.3333330000000032  0.6666669999999968  0.0294255668188245
 -0.0000000000000000  0.0000000000000000  0.6372414331811795
 -0.0000000000000000  0.0000000000000000  0.3627585668188206
  0.6666669999999968  0.3333330000000032  0.9705744331811756
  0.6666669999999968  0.3333330000000032  0.6960915668188237
  0.6666669999999968  0.3333330000000032  0.1787656260402531
 -0.0000000000000000  0.0000000000000000  0.1545673739597430
  0.3333330000000032  0.6666669999999968  0.5120996260402538
  0.6666669999999968  0.3333330000000032  0.4879003739597462
 -0.0000000000000000  0.0000000000000000  0.8454326260402570
  0.3333330000000032  0.6666669999999968  0.8212343739597469
  0.7213210333961847  0.6866332877113622  0.2429251985731057
  0.9653132543151863  0.2786789666038242  0.2429251985731057
  0.3133667122886266  0.0346867456848161  0.2429251985731057
  0.9453459666038121  0.6466997122886339  0.0904078014268976
  0.3533002877113773  0.2986462543151872  0.0904078014268976
  0.7013537456848105  0.0546540333961790  0.0904078014268976
  0.3879870333961911  0.0199672877113629  0.5762591985731064
  0.6319792543151856  0.6120129666038178  0.5762591985731064
  0.9800327122886258  0.3680207456848167  0.5762591985731064
  0.6120129666038089  0.9800327122886371  0.4237408014268937
  0.0199672877113742  0.6319792543151832  0.4237408014268937
  0.3680207456848144  0.3879870333961822  0.4237408014268937
  0.0546540333961879  0.3533002877113661  0.9095921985731025
  0.2986462543151895  0.9453459666038210  0.9095921985731025
  0.6466997122886226  0.7013537456848129  0.9095921985731025
  0.2786789666038154  0.3133667122886378  0.7570748014268943
  0.6866332877113736  0.9653132543151839  0.7570748014268943
  0.0346867456848138  0.7213210333961758  0.7570748014268943
 
  0.00000000E+00  0.00000000E+00  0.00000000E+00
  0.00000000E+00  0.00000000E+00  0.00000000E+00
  0.00000000E+00  0.00000000E+00  0.00000000E+00
  0.00000000E+00  0.00000000E+00  0.00000000E+00
  0.00000000E+00  0.00000000E+00  0.00000000E+00
  0.00000000E+00  0.00000000E+00  0.00000000E+00
  0.00000000E+00  0.00000000E+00  0.00000000E+00
  0.00000000E+00  0.00000000E+00  0.00000000E+00
  0.00000000E+00  0.00000000E+00  0.00000000E+00
  0.00000000E+00  0.00000000E+00  0.00000000E+00
  0.00000000E+00  0.00000000E+00  0.00000000E+00
  0.00000000E+00  0.00000000E+00  0.00000000E+00
  0.00000000E+00  0.00000000E+00  0.00000000E+00
  0.00000000E+00  0.00000000E+00  0.00000000E+00
  0.00000000E+00  0.00000000E+00  0.00000000E+00
  0.00000000E+00  0.00000000E+00  0.00000000E+00
  0.00000000E+00  0.00000000E+00  0.00000000E+00
  0.00000000E+00  0.00000000E+00  0.00000000E+00
  0.00000000E+00  0.00000000E+00  0.00000000E+00
  0.00000000E+00  0.00000000E+00  0.00000000E+00
  0.00000000E+00  0.00000000E+00  0.00000000E+00
  0.00000000E+00  0.00000000E+00  0.00000000E+00
  0.00000000E+00  0.00000000E+00  0.00000000E+00
  0.00000000E+00  0.00000000E+00  0.00000000E+00
  0.00000000E+00  0.00000000E+00  0.00000000E+00
  0.00000000E+00  0.00000000E+00  0.00000000E+00
  0.00000000E+00  0.00000000E+00  0.00000000E+00
  0.00000000E+00  0.00000000E+00  0.00000000E+00
  0.00000000E+00  0.00000000E+00  0.00000000E+00
  0.00000000E+00  0.00000000E+00  0.00000000E+00
