Rb4 Pb4 Br12                            
   1.00000000000000     
     4.4989057364297214    0.0000000000000000    0.0000000000000000
     0.0000000000000000   15.0089331485934725   -0.0000000000000000
     0.0000000000000000    0.0000000000000000   11.3284519204005356
   Rb   Pb   Br
     4     4    12
Direct
  0.0000000000000000  0.2533463016780574  0.2500000000000000
  0.5000000000000000  0.2466536983219425  0.7500000000000000
  0.5000000000000000  0.7533463016780575  0.2500000000000000
 -0.0000000000000000  0.7466536983219425  0.7500000000000000
 -0.0000000000000000 -0.0000000000000000  0.0000000000000000
 -0.0000000000000000 -0.0000000000000000  0.5000000000000000
  0.5000000000000000  0.5000000000000000  0.0000000000000000
  0.5000000000000000  0.5000000000000000  0.5000000000000000
  0.0000000000000000  0.3656157010796964  0.9467235098294606
  0.5000000000000000  0.1343842989203035  0.4467235098294609
 -0.0000000000000000  0.3656157010796964  0.5532764901705394
  0.5000000000000000  0.1343842989203035  0.0532764901705392
  0.5000000000000000  0.4285464627829332  0.2500000000000000
  0.0000000000000000  0.0714535372170670  0.7500000000000000
  0.5000000000000000  0.8656157010796964  0.9467235098294606
  0.0000000000000000  0.6343842989203036  0.4467235098294609
  0.5000000000000000  0.8656157010796964  0.5532764901705394
 -0.0000000000000000  0.6343842989203036  0.0532764901705392
  0.0000000000000000  0.9285464627829331  0.2500000000000000
  0.5000000000000000  0.5714535372170669  0.7500000000000000
 
  0.00000000E+00  0.00000000E+00  0.00000000E+00
  0.00000000E+00  0.00000000E+00  0.00000000E+00
  0.00000000E+00  0.00000000E+00  0.00000000E+00
  0.00000000E+00  0.00000000E+00  0.00000000E+00
  0.00000000E+00  0.00000000E+00  0.00000000E+00
  0.00000000E+00  0.00000000E+00  0.00000000E+00
  0.00000000E+00  0.00000000E+00  0.00000000E+00
  0.00000000E+00  0.00000000E+00  0.00000000E+00
  0.00000000E+00  0.00000000E+00  0.00000000E+00
  0.00000000E+00  0.00000000E+00  0.00000000E+00
  0.00000000E+00  0.00000000E+00  0.00000000E+00
  0.00000000E+00  0.00000000E+00  0.00000000E+00
  0.00000000E+00  0.00000000E+00  0.00000000E+00
  0.00000000E+00  0.00000000E+00  0.00000000E+00
  0.00000000E+00  0.00000000E+00  0.00000000E+00
  0.00000000E+00  0.00000000E+00  0.00000000E+00
  0.00000000E+00  0.00000000E+00  0.00000000E+00
  0.00000000E+00  0.00000000E+00  0.00000000E+00
  0.00000000E+00  0.00000000E+00  0.00000000E+00
  0.00000000E+00  0.00000000E+00  0.00000000E+00
