La4 Co4 N12                             
   1.00000000000000     
    10.4920439156301093    0.0000000000000000   -2.4883751503100107
     0.0000000000000000    4.0640424451821824    0.0000000000000000
     0.0005417938291917    0.0000000000000000    7.4985653941164987
   La   Co   N 
     4     4    12
Direct
  0.6639645228216479  0.5000000000000000  0.8028339261902689
  0.8360354771783521 -0.0000000000000000  0.1971660738097310
  0.1639645228216478 -0.0000000000000000  0.8028339261902689
  0.3360354771783522  0.5000000000000000  0.1971660738097310
  0.9587075648730147  0.5000000000000000  0.8455666370755988
  0.5412924351269853 -0.0000000000000000  0.1544333629244012
  0.4587075648730148  0.0000000000000000  0.8455666370755988
  0.0412924351269853  0.5000000000000000  0.1544333629244012
  0.6335896142556855 -0.0000000000000000  0.9742707724642435
  0.8664103857443145  0.5000000000000000  0.0257292275357565
  0.8941845244987665  0.5000000000000000  0.6194039223572524
  0.6485525769317667  0.0000000000000000  0.5405651071006470
  0.6058154755012335 -0.0000000000000000  0.3805960776427476
  0.8514474230682333  0.5000000000000000  0.4594348928993531
  0.1335896142556854  0.5000000000000000  0.9742707724642435
  0.3664103857443146 -0.0000000000000000  0.0257292275357565
  0.3941845244987665 -0.0000000000000000  0.6194039223572524
  0.1485525769317668  0.5000000000000000  0.5405651071006470
  0.1058154755012336  0.5000000000000000  0.3805960776427476
  0.3514474230682333 -0.0000000000000000  0.4594348928993531
 
  0.00000000E+00  0.00000000E+00  0.00000000E+00
  0.00000000E+00  0.00000000E+00  0.00000000E+00
  0.00000000E+00  0.00000000E+00  0.00000000E+00
  0.00000000E+00  0.00000000E+00  0.00000000E+00
  0.00000000E+00  0.00000000E+00  0.00000000E+00
  0.00000000E+00  0.00000000E+00  0.00000000E+00
  0.00000000E+00  0.00000000E+00  0.00000000E+00
  0.00000000E+00  0.00000000E+00  0.00000000E+00
  0.00000000E+00  0.00000000E+00  0.00000000E+00
  0.00000000E+00  0.00000000E+00  0.00000000E+00
  0.00000000E+00  0.00000000E+00  0.00000000E+00
  0.00000000E+00  0.00000000E+00  0.00000000E+00
  0.00000000E+00  0.00000000E+00  0.00000000E+00
  0.00000000E+00  0.00000000E+00  0.00000000E+00
  0.00000000E+00  0.00000000E+00  0.00000000E+00
  0.00000000E+00  0.00000000E+00  0.00000000E+00
  0.00000000E+00  0.00000000E+00  0.00000000E+00
  0.00000000E+00  0.00000000E+00  0.00000000E+00
  0.00000000E+00  0.00000000E+00  0.00000000E+00
  0.00000000E+00  0.00000000E+00  0.00000000E+00
