Li6 As6 O18                             
   1.00000000000000     
     4.8945712451095673    0.0000000075021369   -0.0000000000000000
    -2.4472856290518257    4.2388234449843525    0.0000000000000000
    -0.0000000000000000    0.0000000000000000   14.4977125843151686
   Li   As   O 
     6     6    18
Direct
  0.6666669999999968  0.3333330000000032  0.2027854611875435
 -0.0000000000000000 -0.0000000000000000  0.1305475388124526
  0.3333330000000032  0.6666669999999968  0.5361194611875441
  0.6666669999999968  0.3333330000000032  0.4638805388124558
 -0.0000000000000000 -0.0000000000000000  0.8694524611875473
  0.3333330000000032  0.6666669999999968  0.7972145388124566
  0.3333330000000032  0.6666669999999968  0.3284893023056933
  0.3333330000000032  0.6666669999999968  0.0048446976943073
 -0.0000000000000000 -0.0000000000000000  0.6618223023056895
 -0.0000000000000000 -0.0000000000000000  0.3381776976943106
  0.6666669999999968  0.3333330000000032  0.9951553023056927
  0.6666669999999968  0.3333330000000032  0.6715106976943066
  0.6311377374800519  0.6232067904150130  0.0726011504554336
  0.9920690529346390  0.3688622625198000  0.0726011504554336
  0.2898737904146945  0.3254020529348162  0.2607318495445696
  0.0355292625199520  0.7101262095849831  0.2607318495445696
  0.6745979470653578  0.9644707374801958  0.2607318495445696
  0.3767932095853094  0.0079309470651870  0.0726011504554336
  0.2978047374800488  0.9565397904150162  0.4059341504554368
  0.6587360529346429  0.7021952625198035  0.4059341504554368
  0.9565397904146941  0.6587360529348169  0.5940658495445632
  0.7021952625199513  0.0434602095849839  0.5940658495445632
  0.3412639470653575  0.2978047374801968  0.5940658495445632
  0.0434602095853061  0.3412639470651831  0.4059341504554368
  0.9644707374800480  0.2898737904150169  0.7392681504554304
  0.3254020529346419  0.0355292625198040  0.7392681504554304
  0.6232067904146908  0.9920690529348130  0.9273988495445664
  0.3688622625199480  0.3767932095849870  0.9273988495445664
  0.0079309470653613  0.6311377374801997  0.9273988495445664
  0.7101262095853053  0.6745979470651838  0.7392681504554304
 
  0.00000000E+00  0.00000000E+00  0.00000000E+00
  0.00000000E+00  0.00000000E+00  0.00000000E+00
  0.00000000E+00  0.00000000E+00  0.00000000E+00
  0.00000000E+00  0.00000000E+00  0.00000000E+00
  0.00000000E+00  0.00000000E+00  0.00000000E+00
  0.00000000E+00  0.00000000E+00  0.00000000E+00
  0.00000000E+00  0.00000000E+00  0.00000000E+00
  0.00000000E+00  0.00000000E+00  0.00000000E+00
  0.00000000E+00  0.00000000E+00  0.00000000E+00
  0.00000000E+00  0.00000000E+00  0.00000000E+00
  0.00000000E+00  0.00000000E+00  0.00000000E+00
  0.00000000E+00  0.00000000E+00  0.00000000E+00
  0.00000000E+00  0.00000000E+00  0.00000000E+00
  0.00000000E+00  0.00000000E+00  0.00000000E+00
  0.00000000E+00  0.00000000E+00  0.00000000E+00
  0.00000000E+00  0.00000000E+00  0.00000000E+00
  0.00000000E+00  0.00000000E+00  0.00000000E+00
  0.00000000E+00  0.00000000E+00  0.00000000E+00
  0.00000000E+00  0.00000000E+00  0.00000000E+00
  0.00000000E+00  0.00000000E+00  0.00000000E+00
  0.00000000E+00  0.00000000E+00  0.00000000E+00
  0.00000000E+00  0.00000000E+00  0.00000000E+00
  0.00000000E+00  0.00000000E+00  0.00000000E+00
  0.00000000E+00  0.00000000E+00  0.00000000E+00
  0.00000000E+00  0.00000000E+00  0.00000000E+00
  0.00000000E+00  0.00000000E+00  0.00000000E+00
  0.00000000E+00  0.00000000E+00  0.00000000E+00
  0.00000000E+00  0.00000000E+00  0.00000000E+00
  0.00000000E+00  0.00000000E+00  0.00000000E+00
  0.00000000E+00  0.00000000E+00  0.00000000E+00
