Rb4 Pb4 Cl12                            
   1.00000000000000     
     4.3141312410621699    0.0000000000000000    0.0000000000000000
     0.0000000000000000   14.4144581809855659    0.0000000000000000
     0.0000000000000000    0.0000000000000000   10.7273426275597039
   Rb   Pb   Cl
     4     4    12
Direct
 -0.0000000000000000  0.2534844964423869  0.2500000000000000
  0.5000000000000000  0.2465155035576131  0.7500000000000000
  0.5000000000000000  0.7534844964423868  0.2500000000000000
 -0.0000000000000000  0.7465155035576132  0.7500000000000000
  0.0000000000000000 -0.0000000000000000  0.0000000000000000
  0.0000000000000000 -0.0000000000000000  0.5000000000000000
  0.5000000000000000  0.5000000000000000  0.0000000000000000
  0.5000000000000000  0.5000000000000000  0.5000000000000000
  0.0000000000000000  0.3677818240720748  0.9448894869640050
  0.5000000000000000  0.1322181759279252  0.4448894869640051
 -0.0000000000000000  0.3677818240720748  0.5551105130359950
  0.5000000000000000  0.1322181759279252  0.0551105130359949
  0.5000000000000000  0.4262384712791641  0.2500000000000000
  0.0000000000000000  0.0737615287208359  0.7500000000000000
  0.5000000000000000  0.8677818240720748  0.9448894869640050
 -0.0000000000000000  0.6322181759279252  0.4448894869640051
  0.5000000000000000  0.8677818240720748  0.5551105130359950
 -0.0000000000000000  0.6322181759279252  0.0551105130359949
 -0.0000000000000000  0.9262384712791643  0.2500000000000000
  0.5000000000000000  0.5737615287208357  0.7500000000000000
 
  0.00000000E+00  0.00000000E+00  0.00000000E+00
  0.00000000E+00  0.00000000E+00  0.00000000E+00
  0.00000000E+00  0.00000000E+00  0.00000000E+00
  0.00000000E+00  0.00000000E+00  0.00000000E+00
  0.00000000E+00  0.00000000E+00  0.00000000E+00
  0.00000000E+00  0.00000000E+00  0.00000000E+00
  0.00000000E+00  0.00000000E+00  0.00000000E+00
  0.00000000E+00  0.00000000E+00  0.00000000E+00
  0.00000000E+00  0.00000000E+00  0.00000000E+00
  0.00000000E+00  0.00000000E+00  0.00000000E+00
  0.00000000E+00  0.00000000E+00  0.00000000E+00
  0.00000000E+00  0.00000000E+00  0.00000000E+00
  0.00000000E+00  0.00000000E+00  0.00000000E+00
  0.00000000E+00  0.00000000E+00  0.00000000E+00
  0.00000000E+00  0.00000000E+00  0.00000000E+00
  0.00000000E+00  0.00000000E+00  0.00000000E+00
  0.00000000E+00  0.00000000E+00  0.00000000E+00
  0.00000000E+00  0.00000000E+00  0.00000000E+00
  0.00000000E+00  0.00000000E+00  0.00000000E+00
  0.00000000E+00  0.00000000E+00  0.00000000E+00
