Al6 Bi6 O18                             
   1.00000000000000     
     5.4154566246153486    0.0000000000000000   -0.0000000000000000
    -2.7077283123076743    4.6899234011759905    0.0000000000000000
    -0.0000000000000000   -0.0000000000000000   13.4394346111136294
   Al   Bi   O 
     6     6    18
Direct
  0.0000000000000000  0.0000000000000000  0.2786700460441900
  0.6666669999999968  0.3333330000000032  0.1120030460441861
  0.6666669999999968  0.3333330000000032  0.6120030460441860
  0.3333330000000032  0.6666669999999968  0.4453370460441868
  0.3333330000000032  0.6666669999999968  0.9453370460441867
  0.0000000000000000  0.0000000000000000  0.7786700460441899
  0.0000000000000000  0.0000000000000000  0.0051442464020731
  0.3333330000000032  0.6666669999999968  0.1718112464020699
  0.6666669999999968  0.3333330000000032  0.3384772464020692
  0.0000000000000000  0.0000000000000000  0.5051442464020659
  0.3333330000000032  0.6666669999999968  0.6718112464020698
  0.6666669999999968  0.3333330000000032  0.8384772464020691
  0.3435252173601624  0.2183214812721373  0.2065629025179101
  0.0101922173600284  0.4585377360879347  0.0398959025179134
  0.7816785187279096  0.1252047360879385  0.2065629025179101
  0.4483455187279974  0.9898077826399249  0.0398959025179134
  0.5414622639119741  0.5516544812721405  0.0398959025179134
  0.8747952639119234  0.6564747826399217  0.2065629025179101
  0.0101922173601662  0.5516544812721405  0.5398959025179133
  0.6768592173600252  0.7918707360879380  0.3732289025179166
  0.4483455187279062  0.4585377360879347  0.5398959025179133
  0.1150125187280012  0.3231407826399281  0.3732289025179166
  0.2081292639119711  0.8849874812721366  0.3732289025179166
  0.5414622639119273  0.9898077826399249  0.5398959025179133
  0.6768592173601630  0.8849874812721366  0.8732289025179165
  0.3435252173600246  0.1252047360879385  0.7065629025179101
  0.1150125187279102  0.7918707360879380  0.8732289025179165
  0.7816785187280005  0.6564747826399217  0.7065629025179101
  0.8747952639119702  0.2183214812721373  0.7065629025179101
  0.2081292639119243  0.3231407826399281  0.8732289025179165
 
  0.00000000E+00  0.00000000E+00  0.00000000E+00
  0.00000000E+00  0.00000000E+00  0.00000000E+00
  0.00000000E+00  0.00000000E+00  0.00000000E+00
  0.00000000E+00  0.00000000E+00  0.00000000E+00
  0.00000000E+00  0.00000000E+00  0.00000000E+00
  0.00000000E+00  0.00000000E+00  0.00000000E+00
  0.00000000E+00  0.00000000E+00  0.00000000E+00
  0.00000000E+00  0.00000000E+00  0.00000000E+00
  0.00000000E+00  0.00000000E+00  0.00000000E+00
  0.00000000E+00  0.00000000E+00  0.00000000E+00
  0.00000000E+00  0.00000000E+00  0.00000000E+00
  0.00000000E+00  0.00000000E+00  0.00000000E+00
  0.00000000E+00  0.00000000E+00  0.00000000E+00
  0.00000000E+00  0.00000000E+00  0.00000000E+00
  0.00000000E+00  0.00000000E+00  0.00000000E+00
  0.00000000E+00  0.00000000E+00  0.00000000E+00
  0.00000000E+00  0.00000000E+00  0.00000000E+00
  0.00000000E+00  0.00000000E+00  0.00000000E+00
  0.00000000E+00  0.00000000E+00  0.00000000E+00
  0.00000000E+00  0.00000000E+00  0.00000000E+00
  0.00000000E+00  0.00000000E+00  0.00000000E+00
  0.00000000E+00  0.00000000E+00  0.00000000E+00
  0.00000000E+00  0.00000000E+00  0.00000000E+00
  0.00000000E+00  0.00000000E+00  0.00000000E+00
  0.00000000E+00  0.00000000E+00  0.00000000E+00
  0.00000000E+00  0.00000000E+00  0.00000000E+00
  0.00000000E+00  0.00000000E+00  0.00000000E+00
  0.00000000E+00  0.00000000E+00  0.00000000E+00
  0.00000000E+00  0.00000000E+00  0.00000000E+00
  0.00000000E+00  0.00000000E+00  0.00000000E+00
