Al2 Bi2 O6                              
   1.00000000000000     
     5.4633879102532195    0.0016739324996377    0.0011788354636324
     2.7778442037554174    4.7044863523739613    0.0011788354636290
     2.7778442037554312    1.5862895120771732    4.4289816903528676
   Al   Bi   O 
     2     2     6
Direct
  0.2786120432704848  0.2786120192704900  0.2786120192704900
  0.7786119422704871  0.7786120052704888  0.7786119702704895
  0.0050814226651994  0.0050814216651958  0.0050814226651994
  0.5050814576651987  0.5050813976651938  0.5050814306651930
  0.0813756690940366  0.5501868474765956  0.9882459424936840
  0.4882460524936860  0.0501867654765960  0.5813756970940389
  0.5501868514765960  0.9882460074936859  0.0813757130940331
  0.5813757170940335  0.4882460124936827  0.0501867744766002
  0.0501868094765996  0.5813756980940354  0.4882460184936832
  0.9882460814936849  0.0813757120940366  0.5501867794765971
 
  0.00000000E+00  0.00000000E+00  0.00000000E+00
  0.00000000E+00  0.00000000E+00  0.00000000E+00
  0.00000000E+00  0.00000000E+00  0.00000000E+00
  0.00000000E+00  0.00000000E+00  0.00000000E+00
  0.00000000E+00  0.00000000E+00  0.00000000E+00
  0.00000000E+00  0.00000000E+00  0.00000000E+00
  0.00000000E+00  0.00000000E+00  0.00000000E+00
  0.00000000E+00  0.00000000E+00  0.00000000E+00
  0.00000000E+00  0.00000000E+00  0.00000000E+00
  0.00000000E+00  0.00000000E+00  0.00000000E+00
