Cs2 Be2 H6
1.0
4.851971 0.000000 -1.596926
0.000000 5.960748 0.000000
0.000000 0.000000 7.869725
Cs Be H
2 2 6
direct
0.182305 0.250000 0.768872 Cs
0.817695 0.750000 0.231128 Cs
0.760692 0.750000 0.761253 Be
0.239308 0.250000 0.238747 Be
0.303725 0.046583 0.171726 H
0.696275 0.546583 0.828274 H
0.696275 0.953417 0.828274 H
0.303725 0.453417 0.171726 H
0.091313 0.250000 0.362088 H
0.908687 0.750000 0.637912 H
