Cs4 Au4 I12                             
   1.00000000000000     
     8.4599397091271307    0.0000000000000000    0.0000000000000000
     0.0000000000000000    8.4599397091271307    0.0000000000000000
     0.0000000000000000   -0.0000000000000000   12.5045465607585591
   Cs   Au   I 
     4     4    12
Direct
  0.0000000000000000  0.5000000000000000  0.2500000000000000
  0.5000000000000000  0.0000000000000000  0.2500000000000000
  0.5000000000000000  0.0000000000000000  0.7500000000000000
  0.0000000000000000  0.5000000000000000  0.7500000000000000
  0.5000000000000000  0.5000000000000000  0.0000000000000000
  0.0000000000000000  0.0000000000000000  0.0000000000000000
  0.0000000000000000  0.0000000000000000  0.5000000000000000
  0.5000000000000000  0.5000000000000000  0.5000000000000000
  0.7743205144225961  0.7743205144225961  0.0000000000000000
  0.5000000000000000  0.5000000000000000  0.2094660424377502
  0.2256794855774038  0.2256794855774038  0.0000000000000000
  0.0000000000000000  0.0000000000000000  0.2905339575622500
  0.2256794855774038  0.7743205144225961  0.0000000000000000
  0.7743205144225961  0.2256794855774038  0.0000000000000000
  0.2743205144225963  0.2743205144225963  0.5000000000000000
  0.0000000000000000  0.0000000000000000  0.7094660424377501
  0.7256794855774039  0.7256794855774039  0.5000000000000000
  0.5000000000000000  0.5000000000000000  0.7905339575622499
  0.7256794855774039  0.2743205144225963  0.5000000000000000
  0.2743205144225963  0.7256794855774039  0.5000000000000000
 
  0.00000000E+00  0.00000000E+00  0.00000000E+00
  0.00000000E+00  0.00000000E+00  0.00000000E+00
  0.00000000E+00  0.00000000E+00  0.00000000E+00
  0.00000000E+00  0.00000000E+00  0.00000000E+00
  0.00000000E+00  0.00000000E+00  0.00000000E+00
  0.00000000E+00  0.00000000E+00  0.00000000E+00
  0.00000000E+00  0.00000000E+00  0.00000000E+00
  0.00000000E+00  0.00000000E+00  0.00000000E+00
  0.00000000E+00  0.00000000E+00  0.00000000E+00
  0.00000000E+00  0.00000000E+00  0.00000000E+00
  0.00000000E+00  0.00000000E+00  0.00000000E+00
  0.00000000E+00  0.00000000E+00  0.00000000E+00
  0.00000000E+00  0.00000000E+00  0.00000000E+00
  0.00000000E+00  0.00000000E+00  0.00000000E+00
  0.00000000E+00  0.00000000E+00  0.00000000E+00
  0.00000000E+00  0.00000000E+00  0.00000000E+00
  0.00000000E+00  0.00000000E+00  0.00000000E+00
  0.00000000E+00  0.00000000E+00  0.00000000E+00
  0.00000000E+00  0.00000000E+00  0.00000000E+00
  0.00000000E+00  0.00000000E+00  0.00000000E+00
