Rb4 Au4 Br12                            
   1.00000000000000     
    11.4586447607876654    0.0000000000000000   -6.0175514817985096
     0.0000000000000000    7.4916591100327601    0.0000000000000000
     0.0147301301801609    0.0000000000000000    8.5044463829507908
   Rb   Au   Br
     4     4    12
Direct
  0.2739996207937759 -0.0000000000000000  0.7714080474617258
  0.2260003792062240  0.5000000000000000  0.2285919525382742
  0.7739996207937758  0.5000000000000000  0.7714080474617258
  0.7260003792062242  0.0000000000000000  0.2285919525382742
 -0.0000000000000000 -0.0000000000000000  0.0000000000000000
 -0.0000000000000000  0.5000000000000000  0.5000000000000000
  0.5000000000000000  0.5000000000000000  0.0000000000000000
  0.5000000000000000  0.0000000000000000  0.5000000000000000
  0.4627217119596634  0.2653246538231577  0.1761390062534190
  0.0372782880403367  0.7653246538231578  0.8238609937465812
  0.0372782880403367  0.2346753461768423  0.8238609937465812
  0.4627217119596634  0.7346753461768422  0.1761390062534190
  0.2123624489360101  0.5000000000000000  0.6342359091618545
  0.2876375510639898  0.0000000000000000  0.3657640908381455
  0.9627217119596633  0.7653246538231578  0.1761390062534190
  0.5372782880403367  0.2653246538231577  0.8238609937465812
  0.5372782880403367  0.7346753461768422  0.8238609937465812
  0.9627217119596633  0.2346753461768423  0.1761390062534190
  0.7123624489360102  0.0000000000000000  0.6342359091618545
  0.7876375510639898  0.5000000000000000  0.3657640908381455
 
  0.00000000E+00  0.00000000E+00  0.00000000E+00
  0.00000000E+00  0.00000000E+00  0.00000000E+00
  0.00000000E+00  0.00000000E+00  0.00000000E+00
  0.00000000E+00  0.00000000E+00  0.00000000E+00
  0.00000000E+00  0.00000000E+00  0.00000000E+00
  0.00000000E+00  0.00000000E+00  0.00000000E+00
  0.00000000E+00  0.00000000E+00  0.00000000E+00
  0.00000000E+00  0.00000000E+00  0.00000000E+00
  0.00000000E+00  0.00000000E+00  0.00000000E+00
  0.00000000E+00  0.00000000E+00  0.00000000E+00
  0.00000000E+00  0.00000000E+00  0.00000000E+00
  0.00000000E+00  0.00000000E+00  0.00000000E+00
  0.00000000E+00  0.00000000E+00  0.00000000E+00
  0.00000000E+00  0.00000000E+00  0.00000000E+00
  0.00000000E+00  0.00000000E+00  0.00000000E+00
  0.00000000E+00  0.00000000E+00  0.00000000E+00
  0.00000000E+00  0.00000000E+00  0.00000000E+00
  0.00000000E+00  0.00000000E+00  0.00000000E+00
  0.00000000E+00  0.00000000E+00  0.00000000E+00
  0.00000000E+00  0.00000000E+00  0.00000000E+00
