Rb3 I3 O9                               
   1.00000000000000     
     6.4656181413676439    0.0000000000000000    0.0000000000000000
    -3.2328090706838220    5.5993893947385569    0.0000000000000000
     0.0000000000000000    0.0000000000000000    8.1991816132287401
   Rb   I    O 
     3     3     9
Direct
  0.3333330000000032  0.6666669999999968  0.1590408562911425
 -0.0000000000000000 -0.0000000000000000  0.4923738562911458
  0.6666669999999968  0.3333330000000032  0.8257068562911489
  0.3333330000000032  0.6666669999999968  0.6680007881888381
 -0.0000000000000000  0.0000000000000000  0.0013337881888413
  0.6666669999999968  0.3333330000000032  0.3346667881888374
  0.9576493779684918  0.4788251889842446  0.4381977851733306
  0.5211748110157411  0.4788251889842446  0.4381977851733306
  0.5211748110157554  0.0423506220315224  0.4381977851733306
  0.6243163779684957  0.8121581889842407  0.7715307851733337
  0.1878418110157450  0.8121581889842407  0.7715307851733337
  0.1878418110157592  0.3756836220315184  0.7715307851733337
  0.2909833779684926  0.1454911889842440  0.1048637851733299
  0.8545088110157418  0.1454911889842440  0.1048637851733299
  0.8545088110157560  0.7090166220315146  0.1048637851733299
 
  0.00000000E+00  0.00000000E+00  0.00000000E+00
  0.00000000E+00  0.00000000E+00  0.00000000E+00
  0.00000000E+00  0.00000000E+00  0.00000000E+00
  0.00000000E+00  0.00000000E+00  0.00000000E+00
  0.00000000E+00  0.00000000E+00  0.00000000E+00
  0.00000000E+00  0.00000000E+00  0.00000000E+00
  0.00000000E+00  0.00000000E+00  0.00000000E+00
  0.00000000E+00  0.00000000E+00  0.00000000E+00
  0.00000000E+00  0.00000000E+00  0.00000000E+00
  0.00000000E+00  0.00000000E+00  0.00000000E+00
  0.00000000E+00  0.00000000E+00  0.00000000E+00
  0.00000000E+00  0.00000000E+00  0.00000000E+00
  0.00000000E+00  0.00000000E+00  0.00000000E+00
  0.00000000E+00  0.00000000E+00  0.00000000E+00
  0.00000000E+00  0.00000000E+00  0.00000000E+00
