Rb3 I3 O9
1.0
6.475398 0.000000 0.000000
-3.237699 5.607859 0.000000
0.000000 0.000000 8.184778
Rb I O
3 3 9
direct
0.333333 0.666667 0.158196 Rb
0.000000 0.000000 0.491529 Rb
0.666667 0.333333 0.824862 Rb
0.333333 0.666667 0.668023 I
0.000000 0.000000 0.001356 I
0.666667 0.333333 0.334689 I
0.957209 0.478605 0.438472 O
0.521395 0.478605 0.438472 O
0.521395 0.042791 0.438472 O
0.623876 0.811938 0.771805 O
0.188062 0.811938 0.771805 O
0.188062 0.376124 0.771805 O
0.290543 0.145271 0.105138 O
0.854729 0.145271 0.105138 O
0.854729 0.709457 0.105138 O
