Cs2 Sn2 S6
1.0
6.245615 0.000000 -2.839644
-3.087734 6.803852 -1.159412
0.000000 0.000000 7.766035
Cs Sn S
2 2 6
direct
0.768085 0.815798 0.138934 Cs
0.231915 0.184202 0.861066 Cs
0.222474 0.512917 0.425747 Sn
0.777526 0.487083 0.574253 Sn
0.168439 0.602129 0.113243 S
0.781544 0.301361 0.288216 S
0.340208 0.239842 0.437754 S
0.659792 0.760158 0.562246 S
0.831561 0.397871 0.886757 S
0.218456 0.698639 0.711784 S
