Na4 Mn4 F12                             
   1.00000000000000     
     5.5649787786137548    0.0000000000000000    0.0000000000000000
     0.0000000000000000    5.7816889243542944    0.0000000000000000
     0.0000000000000000    0.0000000000000000    8.0707908019171271
   Na   Mn   F 
     4     4    12
Direct
  0.4848882158292715  0.9433085002644236  0.2500000000000000
  0.9848882158292714  0.5566914997355764  0.7500000000000000
  0.0151117841707285  0.4433085002644235  0.2500000000000000
  0.5151117841707286  0.0566914997355765  0.7500000000000000
  0.5000000000000000  0.5000000000000000 -0.0000000000000000
  0.0000000000000000  0.0000000000000000 -0.0000000000000000
  0.0000000000000000  0.0000000000000000  0.5000000000000000
  0.5000000000000000  0.5000000000000000  0.5000000000000000
  0.6221585515419873  0.5575552314758946  0.2500000000000000
  0.1221585515419872  0.9424447685241054  0.7500000000000000
  0.8778414484580127  0.0575552314758946  0.2500000000000000
  0.3778414484580129  0.4424447685241054  0.7500000000000000
  0.8099702006695855  0.3058904881637348  0.9350511254238939
  0.3099702006695854  0.1941095118362652  0.0649488745761060
  0.6900297993304145  0.8058904881637347  0.5649488745761061
  0.1900297993304145  0.6941095118362653  0.4350511254238940
  0.8099702006695855  0.3058904881637348  0.5649488745761061
  0.3099702006695854  0.1941095118362652  0.4350511254238940
  0.6900297993304145  0.8058904881637347  0.9350511254238939
  0.1900297993304145  0.6941095118362653  0.0649488745761060
 
  0.00000000E+00  0.00000000E+00  0.00000000E+00
  0.00000000E+00  0.00000000E+00  0.00000000E+00
  0.00000000E+00  0.00000000E+00  0.00000000E+00
  0.00000000E+00  0.00000000E+00  0.00000000E+00
  0.00000000E+00  0.00000000E+00  0.00000000E+00
  0.00000000E+00  0.00000000E+00  0.00000000E+00
  0.00000000E+00  0.00000000E+00  0.00000000E+00
  0.00000000E+00  0.00000000E+00  0.00000000E+00
  0.00000000E+00  0.00000000E+00  0.00000000E+00
  0.00000000E+00  0.00000000E+00  0.00000000E+00
  0.00000000E+00  0.00000000E+00  0.00000000E+00
  0.00000000E+00  0.00000000E+00  0.00000000E+00
  0.00000000E+00  0.00000000E+00  0.00000000E+00
  0.00000000E+00  0.00000000E+00  0.00000000E+00
  0.00000000E+00  0.00000000E+00  0.00000000E+00
  0.00000000E+00  0.00000000E+00  0.00000000E+00
  0.00000000E+00  0.00000000E+00  0.00000000E+00
  0.00000000E+00  0.00000000E+00  0.00000000E+00
  0.00000000E+00  0.00000000E+00  0.00000000E+00
  0.00000000E+00  0.00000000E+00  0.00000000E+00
