Tl4 Cr4 O12                             
   1.00000000000000     
     5.4008908690452087   -0.0000000000000000    0.0000000000000000
    -0.0000000000000000    5.5115119960396584    0.0000000000000000
     0.0000000000000000    0.0000000000000000    7.7387640972777785
   Tl   Cr   O 
     4     4    12
Direct
  0.5137979005140303  0.5444568292385260  0.2500000000000000
  0.9862020994859697  0.0444568292385261  0.2500000000000000
  0.4862020994859699  0.4555431707614739  0.7500000000000000
  0.0137979005140301  0.9555431707614740  0.7500000000000000
 -0.0000000000000000  0.5000000000000000  0.0000000000000000
  0.5000000000000000  0.0000000000000000  0.5000000000000000
 -0.0000000000000000  0.5000000000000000  0.5000000000000000
  0.5000000000000000  0.0000000000000000  0.0000000000000000
  0.4089317764170036  0.9676065698485523  0.2500000000000000
  0.0910682235829965  0.4676065698485524  0.2500000000000000
  0.5910682235829966  0.0323934301514475  0.7500000000000000
  0.9089317764170034  0.5323934301514477  0.7500000000000000
  0.7905548778056058  0.7889882320401020  0.0489057576503669
  0.7094451221943942  0.2889882320401020  0.4510942423496330
  0.2094451221943943  0.2110117679598980  0.5489057576503669
  0.2905548778056057  0.7110117679598980  0.9510942423496331
  0.2094451221943943  0.2110117679598980  0.9510942423496331
  0.2905548778056057  0.7110117679598980  0.5489057576503669
  0.7905548778056058  0.7889882320401020  0.4510942423496330
  0.7094451221943942  0.2889882320401020  0.0489057576503669
 
  0.00000000E+00  0.00000000E+00  0.00000000E+00
  0.00000000E+00  0.00000000E+00  0.00000000E+00
  0.00000000E+00  0.00000000E+00  0.00000000E+00
  0.00000000E+00  0.00000000E+00  0.00000000E+00
  0.00000000E+00  0.00000000E+00  0.00000000E+00
  0.00000000E+00  0.00000000E+00  0.00000000E+00
  0.00000000E+00  0.00000000E+00  0.00000000E+00
  0.00000000E+00  0.00000000E+00  0.00000000E+00
  0.00000000E+00  0.00000000E+00  0.00000000E+00
  0.00000000E+00  0.00000000E+00  0.00000000E+00
  0.00000000E+00  0.00000000E+00  0.00000000E+00
  0.00000000E+00  0.00000000E+00  0.00000000E+00
  0.00000000E+00  0.00000000E+00  0.00000000E+00
  0.00000000E+00  0.00000000E+00  0.00000000E+00
  0.00000000E+00  0.00000000E+00  0.00000000E+00
  0.00000000E+00  0.00000000E+00  0.00000000E+00
  0.00000000E+00  0.00000000E+00  0.00000000E+00
  0.00000000E+00  0.00000000E+00  0.00000000E+00
  0.00000000E+00  0.00000000E+00  0.00000000E+00
  0.00000000E+00  0.00000000E+00  0.00000000E+00
