Li4 Sb4 O12                             
   1.00000000000000     
     4.9207104669405544    0.0000000000000000   -2.1460872324907903
     0.0000000000000000    9.1267853718762524    0.0000000000000000
    -0.0258892281535015    0.0000000000000000    5.4056547837571127
   Li   Sb   O 
     4     4    12
Direct
  0.1600029628618841  0.0000000000000000  0.3552715151196921
  0.8399970371381160  0.0000000000000000  0.6447284848803078
  0.6600029628618840  0.5000000000000000  0.3552715151196921
  0.3399970371381161  0.5000000000000000  0.6447284848803078
  0.5000000000000000  0.8308217496158318 -0.0000000000000000
  0.5000000000000000  0.1691782503841682 -0.0000000000000000
 -0.0000000000000000  0.3308217496158318 -0.0000000000000000
 -0.0000000000000000  0.6691782503841682 -0.0000000000000000
  0.2796785311876105  0.0000000000000000  0.7655557467392521
  0.7203214688123895  0.0000000000000000  0.2344442532607477
  0.7298240869196095  0.8218045859473043  0.7833256292012727
  0.2701749130803934  0.8218045859473043  0.2166743707987273
  0.2701749130803934  0.1781964140527001  0.2166743707987273
  0.7298240869196095  0.1781964140527001  0.7833256292012727
  0.7796785311876105  0.5000000000000000  0.7655557467392521
  0.2203214688123895  0.5000000000000000  0.2344442532607477
  0.2298240869196093  0.3218045859473044  0.7833256292012727
  0.7701759130803905  0.3218045859473044  0.2166743707987273
  0.7701759130803905  0.6781954140526957  0.2166743707987273
  0.2298240869196093  0.6781954140526957  0.7833256292012727
 
  0.00000000E+00  0.00000000E+00  0.00000000E+00
  0.00000000E+00  0.00000000E+00  0.00000000E+00
  0.00000000E+00  0.00000000E+00  0.00000000E+00
  0.00000000E+00  0.00000000E+00  0.00000000E+00
  0.00000000E+00  0.00000000E+00  0.00000000E+00
  0.00000000E+00  0.00000000E+00  0.00000000E+00
  0.00000000E+00  0.00000000E+00  0.00000000E+00
  0.00000000E+00  0.00000000E+00  0.00000000E+00
  0.00000000E+00  0.00000000E+00  0.00000000E+00
  0.00000000E+00  0.00000000E+00  0.00000000E+00
  0.00000000E+00  0.00000000E+00  0.00000000E+00
  0.00000000E+00  0.00000000E+00  0.00000000E+00
  0.00000000E+00  0.00000000E+00  0.00000000E+00
  0.00000000E+00  0.00000000E+00  0.00000000E+00
  0.00000000E+00  0.00000000E+00  0.00000000E+00
  0.00000000E+00  0.00000000E+00  0.00000000E+00
  0.00000000E+00  0.00000000E+00  0.00000000E+00
  0.00000000E+00  0.00000000E+00  0.00000000E+00
  0.00000000E+00  0.00000000E+00  0.00000000E+00
  0.00000000E+00  0.00000000E+00  0.00000000E+00
