Cs3 Ge3 Cl9                             
   1.00000000000000     
     7.7472557896949690   -0.0000000000000000   -0.0000000000000000
    -3.8736278948474845    6.7093200705919473    0.0000000000000000
    -0.0000000000000000   -0.0000000000000000    9.7321665218780566
   Cs   Ge   Cl
     3     3     9
Direct
  0.0000000000000000  0.0000000000000000  0.9992302946759882
  0.6666669999999968  0.3333330000000032  0.3325632946759845
  0.3333330000000032  0.6666669999999968  0.6658972946759850
  0.0000000000000000  0.0000000000000000  0.5158793043546166
  0.6666669999999968  0.3333330000000032  0.8492123043546127
  0.3333330000000032  0.6666669999999968  0.1825463043546133
  0.8472117457668661  0.6944234915337318  0.6469634669898018
  0.8472117457668008  0.1527882542331340  0.6469634669898018
  0.3055765084663332  0.1527882542331340  0.6469634669898018
  0.5138787457668700  0.0277564915337351  0.9802964669897979
  0.5138787457668047  0.4861212542331302  0.9802964669897979
  0.9722435084663301  0.4861212542331302  0.9802964669897979
  0.1805447457668692  0.3610904915337358  0.3136304669897986
  0.1805447457668040  0.8194552542331307  0.3136304669897986
  0.6389095084663294  0.8194552542331307  0.3136304669897986
 
  0.00000000E+00  0.00000000E+00  0.00000000E+00
  0.00000000E+00  0.00000000E+00  0.00000000E+00
  0.00000000E+00  0.00000000E+00  0.00000000E+00
  0.00000000E+00  0.00000000E+00  0.00000000E+00
  0.00000000E+00  0.00000000E+00  0.00000000E+00
  0.00000000E+00  0.00000000E+00  0.00000000E+00
  0.00000000E+00  0.00000000E+00  0.00000000E+00
  0.00000000E+00  0.00000000E+00  0.00000000E+00
  0.00000000E+00  0.00000000E+00  0.00000000E+00
  0.00000000E+00  0.00000000E+00  0.00000000E+00
  0.00000000E+00  0.00000000E+00  0.00000000E+00
  0.00000000E+00  0.00000000E+00  0.00000000E+00
  0.00000000E+00  0.00000000E+00  0.00000000E+00
  0.00000000E+00  0.00000000E+00  0.00000000E+00
  0.00000000E+00  0.00000000E+00  0.00000000E+00
