Y2 W2 N6
1.0
3.594850 0.000000 0.000000
0.000000 6.014530 0.000000
0.000000 0.000000 6.135740
Y W N
2 2 6
direct
0.000000 0.152790 0.288530 Y
0.000000 0.847210 0.788530 Y
0.500000 0.690840 0.318560 W
0.500000 0.309160 0.818560 W
0.500000 0.106700 0.585580 N
0.500000 0.585160 0.695030 N
0.000000 0.772050 0.416830 N
0.500000 0.893300 0.085580 N
0.000000 0.227950 0.916830 N
0.500000 0.414840 0.195030 N
