Cs2 Mg2 Br6                             
   1.00000000000000     
     7.8166253210839187   -0.0000000000000000   -0.0000000000000000
    -3.9083126605419594    6.7693957004524439   -0.0000000000000000
     0.0000000000000000    0.0000000000000000    6.6153575686956714
   Cs   Mg   Br
     2     2     6
Direct
  0.3333330000000032  0.6666669999999968  0.7500000000000000
  0.6666669999999968  0.3333330000000032  0.2500000000000000
  0.0000000000000000  0.0000000000000000  0.0000000000000000
  0.0000000000000000  0.0000000000000000  0.5000000000000000
  0.8427958409506542  0.1572041590493473  0.7500000000000000
  0.1572041590493473  0.3144093180986992  0.2500000000000000
  0.8427958409506527  0.6855906819013008  0.7500000000000000
  0.1572041590493458  0.8427958409506527  0.2500000000000000
  0.6855906819013022  0.8427958409506527  0.2500000000000000
  0.3144093180986977  0.1572041590493473  0.7500000000000000
 
  0.00000000E+00  0.00000000E+00  0.00000000E+00
  0.00000000E+00  0.00000000E+00  0.00000000E+00
  0.00000000E+00  0.00000000E+00  0.00000000E+00
  0.00000000E+00  0.00000000E+00  0.00000000E+00
  0.00000000E+00  0.00000000E+00  0.00000000E+00
  0.00000000E+00  0.00000000E+00  0.00000000E+00
  0.00000000E+00  0.00000000E+00  0.00000000E+00
  0.00000000E+00  0.00000000E+00  0.00000000E+00
  0.00000000E+00  0.00000000E+00  0.00000000E+00
  0.00000000E+00  0.00000000E+00  0.00000000E+00
